Cu  O  C  N  H                          
   1.00000000000000     
    15.1479005814000001    0.0000000000000000    0.0000000000000000
    -7.5739502907000000   13.1184667176000005    0.0000000000000000
     0.0000000000000000    0.0000000000000000   21.1840000153000005
   Cu   O    C    N    H 
   144     1    15     4    18
Selective dynamics
Direct
  0.0000000000000000  0.0000000000000000  0.0000000000000000   F   F   F
  0.0000000000033040  0.1666666666666643  0.0000000000000000   F   F   F
  0.1666666666633674  0.1666666666666643  0.0000000000000000   F   F   F
  0.1666666666666643  0.0000000000000000  0.0000000000000000   F   F   F
  0.0000000000000000  0.3333333333333357  0.0000000000000000   F   F   F
  0.0000000000033040  0.5000000000000000  0.0000000000000000   F   F   F
  0.1666666666699683  0.5000000000000000  0.0000000000000000   F   F   F
  0.1666666666666643  0.3333333333333357  0.0000000000000000   F   F   F
  0.0000000000000000  0.6666666666666643  0.0000000000000000   F   F   F
  0.0000000000033040  0.8333333333333357  0.0000000000000000   F   F   F
  0.1666666666699683  0.8333333333333357  0.0000000000000000   F   F   F
  0.1666666666666643  0.6666666666666643  0.0000000000000000   F   F   F
  0.3333333333333357  0.0000000000000000  0.0000000000000000   F   F   F
  0.3333333333300317  0.1666666666666643  0.0000000000000000   F   F   F
  0.4999999999966960  0.1666666666666643  0.0000000000000000   F   F   F
  0.5000000000000000  0.0000000000000000  0.0000000000000000   F   F   F
  0.3333333333333357  0.3333333333333357  0.0000000000000000   F   F   F
  0.3333333333300317  0.5000000000000000  0.0000000000000000   F   F   F
  0.5000000000033040  0.5000000000000000  0.0000000000000000   F   F   F
  0.5000000000000000  0.3333333333333357  0.0000000000000000   F   F   F
  0.3333333333333357  0.6666666666666643  0.0000000000000000   F   F   F
  0.3333333333300317  0.8333333333333357  0.0000000000000000   F   F   F
  0.5000000000033040  0.8333333333333357  0.0000000000000000   F   F   F
  0.5000000000000000  0.6666666666666643  0.0000000000000000   F   F   F
  0.6666666666666643  0.0000000000000000  0.0000000000000000   F   F   F
  0.6666666666633674  0.1666666666666643  0.0000000000000000   F   F   F
  0.8333333333300317  0.1666666666666643  0.0000000000000000   F   F   F
  0.8333333333333357  0.0000000000000000  0.0000000000000000   F   F   F
  0.6666666666666643  0.3333333333333357  0.0000000000000000   F   F   F
  0.6666666666633674  0.5000000000000000  0.0000000000000000   F   F   F
  0.8333333333300317  0.5000000000000000  0.0000000000000000   F   F   F
  0.8333333333333357  0.3333333333333357  0.0000000000000000   F   F   F
  0.6666666666666643  0.6666666666666643  0.0000000000000000   F   F   F
  0.6666666666633674  0.8333333333333357  0.0000000000000000   F   F   F
  0.8333333333300317  0.8333333333333357  0.0000000000000000   F   F   F
  0.8333333333333357  0.6666666666666643  0.0000000000000000   F   F   F
  0.2222233413375676  0.1111100016699709  0.0973099989997692   F   F   F
  0.2222233413299222  0.2777766586632495  0.0973099989997692   F   F   F
  0.0555566649985550  0.2777766586632495  0.0973099989997692   F   F   F
  0.0555566649995924  0.1111100016699709  0.0973099989997692   F   F   F
  0.2222233413375676  0.4444433350033066  0.0973099989997692   F   F   F
  0.2222233413299222  0.6111099919965852  0.0973099989997692   F   F   F
  0.0555566649985550  0.6111099919965852  0.0973099989997692   F   F   F
  0.0555566649995924  0.4444433350033066  0.0973099989997692   F   F   F
  0.2222233413375676  0.7777766683366352  0.0973099989997692   F   F   F
  0.2222233413299222  0.9444433253299209  0.0973099989997692   F   F   F
  0.0555566649985550  0.9444433253299209  0.0973099989997692   F   F   F
  0.0555566649995924  0.7777766683366352  0.0973099989997692   F   F   F
  0.5555566746708962  0.1111100016699709  0.0973099989997692   F   F   F
  0.5555566746632579  0.2777766586632495  0.0973099989997692   F   F   F
  0.3888899983318836  0.2777766586632495  0.0973099989997692   F   F   F
  0.3888899983329281  0.1111100016699709  0.0973099989997692   F   F   F
  0.5555566746708962  0.4444433350033066  0.0973099989997692   F   F   F
  0.5555566746632579  0.6111099919965852  0.0973099989997692   F   F   F
  0.3888899983318836  0.6111099919965852  0.0973099989997692   F   F   F
  0.3888899983329281  0.4444433350033066  0.0973099989997692   F   F   F
  0.5555566746708962  0.7777766683366352  0.0973099989997692   F   F   F
  0.5555566746632579  0.9444433253299209  0.0973099989997692   F   F   F
  0.3888899983318836  0.9444433253299209  0.0973099989997692   F   F   F
  0.3888899983329281  0.7777766683366352  0.0973099989997692   F   F   F
  0.8888900080042319  0.1111100016699709  0.0973099989997692   F   F   F
  0.8888900079965936  0.2777766586632495  0.0973099989997692   F   F   F
  0.7222233316652193  0.2777766586632495  0.0973099989997692   F   F   F
  0.7222233316662567  0.1111100016699709  0.0973099989997692   F   F   F
  0.8888900080042319  0.4444433350033066  0.0973099989997692   F   F   F
  0.8888900079965936  0.6111099919965852  0.0973099989997692   F   F   F
  0.7222233316652193  0.6111099919965852  0.0973099989997692   F   F   F
  0.7222233316662567  0.4444433350033066  0.0973099989997692   F   F   F
  0.8888900080042319  0.7777766683366352  0.0973099989997692   F   F   F
  0.8888900079965936  0.9444433253299209  0.0973099989997692   F   F   F
  0.7222233316652193  0.9444433253299209  0.0973099989997692   F   F   F
  0.7222233316662567  0.7777766683366352  0.0973099989997692   F   F   F
  0.1113008832478298  0.2223109581548156  0.1957621730836097   T   T   T
  0.1112628981992963  0.0556421843844624  0.1958066491082401   T   T   T
  0.2777529136394434  0.0553752551338100  0.1953920831096289   T   T   T
  0.2776416020459134  0.2222458220763998  0.1955281906077476   T   T   T
  0.1111072017929232  0.5553351353409118  0.1956117272324559   T   T   T
  0.1112190838279253  0.3887563593674035  0.1957646944176732   T   T   T
  0.2777971240562258  0.3889193359438782  0.1957412007589092   T   T   T
  0.2777663284336769  0.5554377275618682  0.1959363491194272   T   T   T
  0.1111698309478504  0.8889594340526494  0.1956886161720106   T   T   T
  0.1111560163538967  0.7222717228219497  0.1955528852692854   T   T   T
  0.2778153491922036  0.7220699654535581  0.1957519460829301   T   T   T
  0.2777028751259852  0.8888192382384086  0.1954198565001342   T   T   T
  0.4444886355764170  0.2225069164065285  0.1958873146083844   T   T   T
  0.4443254176606254  0.0553102455558587  0.1952699092268425   T   T   T
  0.6110826109366984  0.0554352756616037  0.1954488323795881   T   T   T
  0.6114272054977822  0.2224364339830594  0.1958534331003093   T   T   T
  0.4441123441182950  0.5554942930306583  0.1952961821150928   T   T   T
  0.4443855080438117  0.3882870457154811  0.1957999996073660   T   T   T
  0.6109879342163528  0.3883519604347349  0.1969760408372878   T   T   T
  0.6113513342486628  0.5552321525861331  0.1954017582069814   T   T   T
  0.4446387008367128  0.8885550327627511  0.1959930311942394   T   T   T
  0.4444231641584213  0.7222385741990790  0.1964296301971417   T   T   T
  0.6109164258199936  0.7221120385609989  0.1955162113347600   T   T   T
  0.6108629625969610  0.8886946932033123  0.1959412335030292   T   T   T
  0.7780291518418569  0.2221645415421126  0.1955351490587577   T   T   T
  0.7779375693680266  0.0555120033701208  0.1955512437318637   T   T   T
  0.9445744561665114  0.0556220560340653  0.1957229474152402   T   T   T
  0.9446153278189918  0.2222457544474721  0.1957232365392788   T   T   T
  0.7781519655253976  0.5556711161595307  0.1958848817405386   T   T   T
  0.7776632224428267  0.3887659375672232  0.1961383685126288   T   T   T
  0.9446387584550927  0.3888645775280418  0.1957050702996979   T   T   T
  0.9446216832410801  0.5555068680634326  0.1957729419406228   T   T   T
  0.7778724772912340  0.8888627509872903  0.1955468763776651   T   T   T
  0.7782214211204962  0.7223493481684378  0.1956106729376256   T   T   T
  0.9445671003780691  0.7222417977865868  0.1958848235162616   T   T   T
  0.9445825868995349  0.8889379606160291  0.1957897823756057   T   T   T
  0.0002063911109079  0.0000758704189862  0.2939932587502996   T   T   T
  0.0002757270418416  0.1667069237572280  0.2939779978351179   T   T   T
  0.1669244404101051  0.1667877525576013  0.2942841098050640   T   T   T
  0.1668416026048093  0.9999164026856812  0.2941606330875101   T   T   T
  0.0003470686280836  0.3332065439332161  0.2942535480620431   T   T   T
  0.0002256225467512  0.4998040933263523  0.2942626620872458   T   T   T
  0.1665543952804494  0.4996154922645830  0.2942169342806554   T   T   T
  0.1668918808663719  0.3334070693149142  0.2943893536849265   T   T   T
  0.0002215285889055  0.6667192885288892  0.2940820398516008   T   T   T
  0.0003435591322418  0.8335034263902997  0.2940414568347425   T   T   T
  0.1668324824069523  0.8334234464828363  0.2938967834485514   T   T   T
  0.1661649675258530  0.6663139991653472  0.2933890896080367   T   T   T
  0.3333319306136726  0.9998546419096267  0.2938828616513273   T   T   T
  0.3324693087896025  0.1659573133455952  0.2932015638251230   T   T   T
  0.4996712212564285  0.1659549278899959  0.2926232251827527   T   T   T
  0.5000341612604717  0.0000262644375273  0.2938332623369578   T   T   T
  0.3328708048078385  0.3330885242305400  0.2942562755593860   T   T   T
  0.3333364468849126  0.4997233143645283  0.2946014418990097   T   T   T
  0.4995741497431267  0.5000128964375479  0.2920176120121894   T   T   T
  0.4993182660945994  0.3331898402371260  0.2958012871878238   T   T   T
  0.3326637187963583  0.6661466175232297  0.2942824386312433   T   T   T
  0.3332144436079756  0.8336295758416592  0.2933394013178344   T   T   T
  0.5001425317726106  0.8329781916652484  0.2952724147338294   T   T   T
  0.5000391680855063  0.6658101346934423  0.2939488416129089   T   T   T
  0.6671098314142977  0.0001174244813179  0.2937287413146841   T   T   T
  0.6671133381214263  0.1659152295902766  0.2932558655713480   T   T   T
  0.8337065486982403  0.1665019520094307  0.2940095075074023   T   T   T
  0.8334128207530894  0.9999025138316744  0.2939899916989198   T   T   T
  0.6673981483395151  0.3323173083875248  0.2954511684411524   T   T   T
  0.6677117545027812  0.5002036109408831  0.2935758595243766   T   T   T
  0.8340520540109156  0.5000512712308510  0.2939855084382939   T   T   T
  0.8340805532219573  0.3329238582066608  0.2938785314151697   T   T   T
  0.6670626893110438  0.6668089969362869  0.2926836937134802   T   T   T
  0.6671695847174763  0.8333446642093394  0.2934394720602445   T   T   T
  0.8335622456673693  0.8335246951554214  0.2940341672014721   T   T   T
  0.8338926944455904  0.6671656700942805  0.2945462380575247   T   T   T
  0.7544071536923928  0.6636638366845280  0.4534407102854302   T   T   T
  0.2539598512913634  0.7119913282250632  0.4493522725345196   T   T   T
  0.3504452824092875  0.7076259092967291  0.4443048555789350   T   T   T
  0.4447789171070533  0.7946772802089689  0.4326779024876420   T   T   T
  0.5359592970650926  0.7925054026831769  0.4310779444481467   T   T   T
  0.5352677953207197  0.7007012012777464  0.4443214149297900   T   T   T
  0.4416569550017132  0.6128474557139799  0.4569436269237688   T   T   T
  0.3495301873337719  0.6148742850263941  0.4552744670777285   T   T   T
  0.6633879556376894  0.6348708205095387  0.4447567426232605   T   T   T
  0.6934196164679516  0.4510100200926957  0.4342761511476006   T   T   T
  0.6928933271209679  0.3581761699598265  0.4377898890921031   T   T   T
  0.6035974182412801  0.2633041340111891  0.4397047521578610   T   T   T
  0.5089732805532082  0.2613663453670231  0.4351886821342681   T   T   T
  0.5082157675623711  0.3536814933882439  0.4299909849293747   T   T   T
  0.5994110123830144  0.4484486521023918  0.4324853318920340   T   T   T
  0.6054988317311359  0.1661523449296089  0.4492315660684849   T   T   T
  0.2588224328772293  0.5271091795784791  0.4685932693458175   T   T   T
  0.6303741806817339  0.7059964074856507  0.4459879932698368   T   T   T
  0.5890911296901193  0.5354508746667260  0.4326311671371662   T   T   T
  0.4182404647924201  0.1699851792322011  0.4392429484618367   T   T   T
  0.4470987143751066  0.8671403820591681  0.4250116579729906   T   T   T
  0.6082676447351882  0.8623630036277294  0.4226712789116992   T   T   T
  0.4375764646576248  0.5426299803131671  0.4731199309876383   T   T   T
  0.1940717773145454  0.5251119372447303  0.4537783681787916   T   T   T
  0.2574178237223502  0.4600911812213207  0.4617106944436856   T   T   T
  0.6917651750680891  0.7777589924256353  0.4456697994011278   T   T   T
  0.1947299542216306  0.6584108796547069  0.4162532364442976   T   T   T
  0.2674594863673914  0.7885105197615394  0.4379670714054407   T   T   T
  0.2215056267517449  0.6915379182709825  0.4973383654006811   T   T   T
  0.5208346953701671  0.5243996708954746  0.4165776743246015   T   T   T
  0.7658204426732687  0.3601148883503169  0.4407937417212924   T   T   T
  0.4350761972168268  0.3515709764979890  0.4292355977595375   T   T   T
  0.5648692657197397  0.1272193211248678  0.4928576402043154   T   T   T
  0.5678227647810501  0.1120227997843258  0.4097016321456126   T   T   T
  0.6840913570465417  0.1808144062308781  0.4519803653136092   T   T   T
  0.4198615390888807  0.1064730794708585  0.4252939670814274   T   T   T
  0.3549588250327105  0.1702770196420176  0.4231863485952727   T   T   T
  0.7640805051151588  0.5235892812258862  0.4358887950978933   T   T   T
 
  0.00000000E+00  0.00000000E+00  0.00000000E+00
  0.00000000E+00  0.00000000E+00  0.00000000E+00
  0.00000000E+00  0.00000000E+00  0.00000000E+00
  0.00000000E+00  0.00000000E+00  0.00000000E+00
  0.00000000E+00  0.00000000E+00  0.00000000E+00
  0.00000000E+00  0.00000000E+00  0.00000000E+00
  0.00000000E+00  0.00000000E+00  0.00000000E+00
  0.00000000E+00  0.00000000E+00  0.00000000E+00
  0.00000000E+00  0.00000000E+00  0.00000000E+00
  0.00000000E+00  0.00000000E+00  0.00000000E+00
  0.00000000E+00  0.00000000E+00  0.00000000E+00
  0.00000000E+00  0.00000000E+00  0.00000000E+00
  0.00000000E+00  0.00000000E+00  0.00000000E+00
  0.00000000E+00  0.00000000E+00  0.00000000E+00
  0.00000000E+00  0.00000000E+00  0.00000000E+00
  0.00000000E+00  0.00000000E+00  0.00000000E+00
  0.00000000E+00  0.00000000E+00  0.00000000E+00
  0.00000000E+00  0.00000000E+00  0.00000000E+00
  0.00000000E+00  0.00000000E+00  0.00000000E+00
  0.00000000E+00  0.00000000E+00  0.00000000E+00
  0.00000000E+00  0.00000000E+00  0.00000000E+00
  0.00000000E+00  0.00000000E+00  0.00000000E+00
  0.00000000E+00  0.00000000E+00  0.00000000E+00
  0.00000000E+00  0.00000000E+00  0.00000000E+00
  0.00000000E+00  0.00000000E+00  0.00000000E+00
  0.00000000E+00  0.00000000E+00  0.00000000E+00
  0.00000000E+00  0.00000000E+00  0.00000000E+00
  0.00000000E+00  0.00000000E+00  0.00000000E+00
  0.00000000E+00  0.00000000E+00  0.00000000E+00
  0.00000000E+00  0.00000000E+00  0.00000000E+00
  0.00000000E+00  0.00000000E+00  0.00000000E+00
  0.00000000E+00  0.00000000E+00  0.00000000E+00
  0.00000000E+00  0.00000000E+00  0.00000000E+00
  0.00000000E+00  0.00000000E+00  0.00000000E+00
  0.00000000E+00  0.00000000E+00  0.00000000E+00
  0.00000000E+00  0.00000000E+00  0.00000000E+00
  0.00000000E+00  0.00000000E+00  0.00000000E+00
  0.00000000E+00  0.00000000E+00  0.00000000E+00
  0.00000000E+00  0.00000000E+00  0.00000000E+00
  0.00000000E+00  0.00000000E+00  0.00000000E+00
  0.00000000E+00  0.00000000E+00  0.00000000E+00
  0.00000000E+00  0.00000000E+00  0.00000000E+00
  0.00000000E+00  0.00000000E+00  0.00000000E+00
  0.00000000E+00  0.00000000E+00  0.00000000E+00
  0.00000000E+00  0.00000000E+00  0.00000000E+00
  0.00000000E+00  0.00000000E+00  0.00000000E+00
  0.00000000E+00  0.00000000E+00  0.00000000E+00
  0.00000000E+00  0.00000000E+00  0.00000000E+00
  0.00000000E+00  0.00000000E+00  0.00000000E+00
  0.00000000E+00  0.00000000E+00  0.00000000E+00
  0.00000000E+00  0.00000000E+00  0.00000000E+00
  0.00000000E+00  0.00000000E+00  0.00000000E+00
  0.00000000E+00  0.00000000E+00  0.00000000E+00
  0.00000000E+00  0.00000000E+00  0.00000000E+00
  0.00000000E+00  0.00000000E+00  0.00000000E+00
  0.00000000E+00  0.00000000E+00  0.00000000E+00
  0.00000000E+00  0.00000000E+00  0.00000000E+00
  0.00000000E+00  0.00000000E+00  0.00000000E+00
  0.00000000E+00  0.00000000E+00  0.00000000E+00
  0.00000000E+00  0.00000000E+00  0.00000000E+00
  0.00000000E+00  0.00000000E+00  0.00000000E+00
  0.00000000E+00  0.00000000E+00  0.00000000E+00
  0.00000000E+00  0.00000000E+00  0.00000000E+00
  0.00000000E+00  0.00000000E+00  0.00000000E+00
  0.00000000E+00  0.00000000E+00  0.00000000E+00
  0.00000000E+00  0.00000000E+00  0.00000000E+00
  0.00000000E+00  0.00000000E+00  0.00000000E+00
  0.00000000E+00  0.00000000E+00  0.00000000E+00
  0.00000000E+00  0.00000000E+00  0.00000000E+00
  0.00000000E+00  0.00000000E+00  0.00000000E+00
  0.00000000E+00  0.00000000E+00  0.00000000E+00
  0.00000000E+00  0.00000000E+00  0.00000000E+00
  0.00000000E+00  0.00000000E+00  0.00000000E+00
  0.00000000E+00  0.00000000E+00  0.00000000E+00
  0.00000000E+00  0.00000000E+00  0.00000000E+00
  0.00000000E+00  0.00000000E+00  0.00000000E+00
  0.00000000E+00  0.00000000E+00  0.00000000E+00
  0.00000000E+00  0.00000000E+00  0.00000000E+00
  0.00000000E+00  0.00000000E+00  0.00000000E+00
  0.00000000E+00  0.00000000E+00  0.00000000E+00
  0.00000000E+00  0.00000000E+00  0.00000000E+00
  0.00000000E+00  0.00000000E+00  0.00000000E+00
  0.00000000E+00  0.00000000E+00  0.00000000E+00
  0.00000000E+00  0.00000000E+00  0.00000000E+00
  0.00000000E+00  0.00000000E+00  0.00000000E+00
  0.00000000E+00  0.00000000E+00  0.00000000E+00
  0.00000000E+00  0.00000000E+00  0.00000000E+00
  0.00000000E+00  0.00000000E+00  0.00000000E+00
  0.00000000E+00  0.00000000E+00  0.00000000E+00
  0.00000000E+00  0.00000000E+00  0.00000000E+00
  0.00000000E+00  0.00000000E+00  0.00000000E+00
  0.00000000E+00  0.00000000E+00  0.00000000E+00
  0.00000000E+00  0.00000000E+00  0.00000000E+00
  0.00000000E+00  0.00000000E+00  0.00000000E+00
  0.00000000E+00  0.00000000E+00  0.00000000E+00
  0.00000000E+00  0.00000000E+00  0.00000000E+00
  0.00000000E+00  0.00000000E+00  0.00000000E+00
  0.00000000E+00  0.00000000E+00  0.00000000E+00
  0.00000000E+00  0.00000000E+00  0.00000000E+00
  0.00000000E+00  0.00000000E+00  0.00000000E+00
  0.00000000E+00  0.00000000E+00  0.00000000E+00
  0.00000000E+00  0.00000000E+00  0.00000000E+00
  0.00000000E+00  0.00000000E+00  0.00000000E+00
  0.00000000E+00  0.00000000E+00  0.00000000E+00
  0.00000000E+00  0.00000000E+00  0.00000000E+00
  0.00000000E+00  0.00000000E+00  0.00000000E+00
  0.00000000E+00  0.00000000E+00  0.00000000E+00
  0.00000000E+00  0.00000000E+00  0.00000000E+00
  0.00000000E+00  0.00000000E+00  0.00000000E+00
  0.00000000E+00  0.00000000E+00  0.00000000E+00
  0.00000000E+00  0.00000000E+00  0.00000000E+00
  0.00000000E+00  0.00000000E+00  0.00000000E+00
  0.00000000E+00  0.00000000E+00  0.00000000E+00
  0.00000000E+00  0.00000000E+00  0.00000000E+00
  0.00000000E+00  0.00000000E+00  0.00000000E+00
  0.00000000E+00  0.00000000E+00  0.00000000E+00
  0.00000000E+00  0.00000000E+00  0.00000000E+00
  0.00000000E+00  0.00000000E+00  0.00000000E+00
  0.00000000E+00  0.00000000E+00  0.00000000E+00
  0.00000000E+00  0.00000000E+00  0.00000000E+00
  0.00000000E+00  0.00000000E+00  0.00000000E+00
  0.00000000E+00  0.00000000E+00  0.00000000E+00
  0.00000000E+00  0.00000000E+00  0.00000000E+00
  0.00000000E+00  0.00000000E+00  0.00000000E+00
  0.00000000E+00  0.00000000E+00  0.00000000E+00
  0.00000000E+00  0.00000000E+00  0.00000000E+00
  0.00000000E+00  0.00000000E+00  0.00000000E+00
  0.00000000E+00  0.00000000E+00  0.00000000E+00
  0.00000000E+00  0.00000000E+00  0.00000000E+00
  0.00000000E+00  0.00000000E+00  0.00000000E+00
  0.00000000E+00  0.00000000E+00  0.00000000E+00
  0.00000000E+00  0.00000000E+00  0.00000000E+00
  0.00000000E+00  0.00000000E+00  0.00000000E+00
  0.00000000E+00  0.00000000E+00  0.00000000E+00
  0.00000000E+00  0.00000000E+00  0.00000000E+00
  0.00000000E+00  0.00000000E+00  0.00000000E+00
  0.00000000E+00  0.00000000E+00  0.00000000E+00
  0.00000000E+00  0.00000000E+00  0.00000000E+00
  0.00000000E+00  0.00000000E+00  0.00000000E+00
  0.00000000E+00  0.00000000E+00  0.00000000E+00
  0.00000000E+00  0.00000000E+00  0.00000000E+00
  0.00000000E+00  0.00000000E+00  0.00000000E+00
  0.00000000E+00  0.00000000E+00  0.00000000E+00
  0.00000000E+00  0.00000000E+00  0.00000000E+00
  0.00000000E+00  0.00000000E+00  0.00000000E+00
  0.00000000E+00  0.00000000E+00  0.00000000E+00
  0.00000000E+00  0.00000000E+00  0.00000000E+00
  0.00000000E+00  0.00000000E+00  0.00000000E+00
  0.00000000E+00  0.00000000E+00  0.00000000E+00
  0.00000000E+00  0.00000000E+00  0.00000000E+00
  0.00000000E+00  0.00000000E+00  0.00000000E+00
  0.00000000E+00  0.00000000E+00  0.00000000E+00
  0.00000000E+00  0.00000000E+00  0.00000000E+00
  0.00000000E+00  0.00000000E+00  0.00000000E+00
  0.00000000E+00  0.00000000E+00  0.00000000E+00
  0.00000000E+00  0.00000000E+00  0.00000000E+00
  0.00000000E+00  0.00000000E+00  0.00000000E+00
  0.00000000E+00  0.00000000E+00  0.00000000E+00
  0.00000000E+00  0.00000000E+00  0.00000000E+00
  0.00000000E+00  0.00000000E+00  0.00000000E+00
  0.00000000E+00  0.00000000E+00  0.00000000E+00
  0.00000000E+00  0.00000000E+00  0.00000000E+00
  0.00000000E+00  0.00000000E+00  0.00000000E+00
  0.00000000E+00  0.00000000E+00  0.00000000E+00
  0.00000000E+00  0.00000000E+00  0.00000000E+00
  0.00000000E+00  0.00000000E+00  0.00000000E+00
  0.00000000E+00  0.00000000E+00  0.00000000E+00
  0.00000000E+00  0.00000000E+00  0.00000000E+00
  0.00000000E+00  0.00000000E+00  0.00000000E+00
  0.00000000E+00  0.00000000E+00  0.00000000E+00
  0.00000000E+00  0.00000000E+00  0.00000000E+00
  0.00000000E+00  0.00000000E+00  0.00000000E+00
  0.00000000E+00  0.00000000E+00  0.00000000E+00
  0.00000000E+00  0.00000000E+00  0.00000000E+00
  0.00000000E+00  0.00000000E+00  0.00000000E+00
  0.00000000E+00  0.00000000E+00  0.00000000E+00
  0.00000000E+00  0.00000000E+00  0.00000000E+00
  0.00000000E+00  0.00000000E+00  0.00000000E+00
  0.00000000E+00  0.00000000E+00  0.00000000E+00
  0.00000000E+00  0.00000000E+00  0.00000000E+00
  0.00000000E+00  0.00000000E+00  0.00000000E+00
  0.00000000E+00  0.00000000E+00  0.00000000E+00
