Cu  O  C  N  H                          
   1.00000000000000     
    15.1479005814000001    0.0000000000000000    0.0000000000000000
    -7.5739502907000000   13.1184667176000005    0.0000000000000000
     0.0000000000000000    0.0000000000000000   21.1840000153000005
   Cu   O    C    N    H 
   144     2     9     2    12
Selective dynamics
Direct
  0.0000000000000000  0.0000000000000000  0.0000000000000000   F   F   F
  0.0000000000033040  0.1666666666666643  0.0000000000000000   F   F   F
  0.1666666666633674  0.1666666666666643  0.0000000000000000   F   F   F
  0.1666666666666643  0.0000000000000000  0.0000000000000000   F   F   F
  0.0000000000000000  0.3333333333333357  0.0000000000000000   F   F   F
  0.0000000000033040  0.5000000000000000  0.0000000000000000   F   F   F
  0.1666666666699683  0.5000000000000000  0.0000000000000000   F   F   F
  0.1666666666666643  0.3333333333333357  0.0000000000000000   F   F   F
  0.0000000000000000  0.6666666666666643  0.0000000000000000   F   F   F
  0.0000000000033040  0.8333333333333357  0.0000000000000000   F   F   F
  0.1666666666699683  0.8333333333333357  0.0000000000000000   F   F   F
  0.1666666666666643  0.6666666666666643  0.0000000000000000   F   F   F
  0.3333333333333357  0.0000000000000000  0.0000000000000000   F   F   F
  0.3333333333300317  0.1666666666666643  0.0000000000000000   F   F   F
  0.4999999999966960  0.1666666666666643  0.0000000000000000   F   F   F
  0.5000000000000000  0.0000000000000000  0.0000000000000000   F   F   F
  0.3333333333333357  0.3333333333333357  0.0000000000000000   F   F   F
  0.3333333333300317  0.5000000000000000  0.0000000000000000   F   F   F
  0.5000000000033040  0.5000000000000000  0.0000000000000000   F   F   F
  0.5000000000000000  0.3333333333333357  0.0000000000000000   F   F   F
  0.3333333333333357  0.6666666666666643  0.0000000000000000   F   F   F
  0.3333333333300317  0.8333333333333357  0.0000000000000000   F   F   F
  0.5000000000033040  0.8333333333333357  0.0000000000000000   F   F   F
  0.5000000000000000  0.6666666666666643  0.0000000000000000   F   F   F
  0.6666666666666643  0.0000000000000000  0.0000000000000000   F   F   F
  0.6666666666633674  0.1666666666666643  0.0000000000000000   F   F   F
  0.8333333333300317  0.1666666666666643  0.0000000000000000   F   F   F
  0.8333333333333357  0.0000000000000000  0.0000000000000000   F   F   F
  0.6666666666666643  0.3333333333333357  0.0000000000000000   F   F   F
  0.6666666666633674  0.5000000000000000  0.0000000000000000   F   F   F
  0.8333333333300317  0.5000000000000000  0.0000000000000000   F   F   F
  0.8333333333333357  0.3333333333333357  0.0000000000000000   F   F   F
  0.6666666666666643  0.6666666666666643  0.0000000000000000   F   F   F
  0.6666666666633674  0.8333333333333357  0.0000000000000000   F   F   F
  0.8333333333300317  0.8333333333333357  0.0000000000000000   F   F   F
  0.8333333333333357  0.6666666666666643  0.0000000000000000   F   F   F
  0.2222233413375676  0.1111100016699709  0.0973099989997692   F   F   F
  0.2222233413299222  0.2777766586632495  0.0973099989997692   F   F   F
  0.0555566649985550  0.2777766586632495  0.0973099989997692   F   F   F
  0.0555566649995924  0.1111100016699709  0.0973099989997692   F   F   F
  0.2222233413375676  0.4444433350033066  0.0973099989997692   F   F   F
  0.2222233413299222  0.6111099919965852  0.0973099989997692   F   F   F
  0.0555566649985550  0.6111099919965852  0.0973099989997692   F   F   F
  0.0555566649995924  0.4444433350033066  0.0973099989997692   F   F   F
  0.2222233413375676  0.7777766683366352  0.0973099989997692   F   F   F
  0.2222233413299222  0.9444433253299209  0.0973099989997692   F   F   F
  0.0555566649985550  0.9444433253299209  0.0973099989997692   F   F   F
  0.0555566649995924  0.7777766683366352  0.0973099989997692   F   F   F
  0.5555566746708962  0.1111100016699709  0.0973099989997692   F   F   F
  0.5555566746632579  0.2777766586632495  0.0973099989997692   F   F   F
  0.3888899983318836  0.2777766586632495  0.0973099989997692   F   F   F
  0.3888899983329281  0.1111100016699709  0.0973099989997692   F   F   F
  0.5555566746708962  0.4444433350033066  0.0973099989997692   F   F   F
  0.5555566746632579  0.6111099919965852  0.0973099989997692   F   F   F
  0.3888899983318836  0.6111099919965852  0.0973099989997692   F   F   F
  0.3888899983329281  0.4444433350033066  0.0973099989997692   F   F   F
  0.5555566746708962  0.7777766683366352  0.0973099989997692   F   F   F
  0.5555566746632579  0.9444433253299209  0.0973099989997692   F   F   F
  0.3888899983318836  0.9444433253299209  0.0973099989997692   F   F   F
  0.3888899983329281  0.7777766683366352  0.0973099989997692   F   F   F
  0.8888900080042319  0.1111100016699709  0.0973099989997692   F   F   F
  0.8888900079965936  0.2777766586632495  0.0973099989997692   F   F   F
  0.7222233316652193  0.2777766586632495  0.0973099989997692   F   F   F
  0.7222233316662567  0.1111100016699709  0.0973099989997692   F   F   F
  0.8888900080042319  0.4444433350033066  0.0973099989997692   F   F   F
  0.8888900079965936  0.6111099919965852  0.0973099989997692   F   F   F
  0.7222233316652193  0.6111099919965852  0.0973099989997692   F   F   F
  0.7222233316662567  0.4444433350033066  0.0973099989997692   F   F   F
  0.8888900080042319  0.7777766683366352  0.0973099989997692   F   F   F
  0.8888900079965936  0.9444433253299209  0.0973099989997692   F   F   F
  0.7222233316652193  0.9444433253299209  0.0973099989997692   F   F   F
  0.7222233316662567  0.7777766683366352  0.0973099989997692   F   F   F
  0.1111772415520480  0.2223082023917912  0.1956074885498354   T   T   T
  0.1111505914061412  0.0556879724652483  0.1956982743149864   T   T   T
  0.2777747011770120  0.0556793306092463  0.1956219644923446   T   T   T
  0.2778676930950423  0.2225516646994788  0.1957313879652151   T   T   T
  0.1111347405385694  0.5557711854322077  0.1956026737640816   T   T   T
  0.1109724084461044  0.3889227494799510  0.1956101020150183   T   T   T
  0.2778666832763499  0.3893556720806274  0.1962817120288726   T   T   T
  0.2778237928389247  0.5553852117848390  0.1960324984539514   T   T   T
  0.1111521354867153  0.8890895541567192  0.1956886580240930   T   T   T
  0.1111808314730081  0.7225095288480419  0.1956210905109742   T   T   T
  0.2777293208138162  0.7224904173405985  0.1954415597329188   T   T   T
  0.2778106899444999  0.8891409463793656  0.1956462818425644   T   T   T
  0.4443724216065191  0.2221846189270854  0.1954786145689576   T   T   T
  0.4444392699737566  0.0556780747643947  0.1958195162964809   T   T   T
  0.6111042891453913  0.0555205174800826  0.1957196250048470   T   T   T
  0.6109696025676697  0.2221367696172069  0.1955365698844466   T   T   T
  0.4440971629275165  0.5552952832444840  0.1966235987411200   T   T   T
  0.4444360928509865  0.3892957190257028  0.1961935164050031   T   T   T
  0.6112873347317339  0.3892489889561297  0.1957117436335480   T   T   T
  0.6112568341204208  0.5556254564305875  0.1960371444099670   T   T   T
  0.4444908055135250  0.8891517164374404  0.1955955932427318   T   T   T
  0.4445519790162827  0.7225235264802226  0.1953803095226823   T   T   T
  0.6112719064224765  0.7223466140722347  0.1955076772271656   T   T   T
  0.6113118873340830  0.8890681585344765  0.1955497388414613   T   T   T
  0.7777877258121310  0.2222700022488599  0.1956051028613101   T   T   T
  0.7777699918389850  0.0555899232731577  0.1957495151723359   T   T   T
  0.9444589539404317  0.0556981390033508  0.1957862895222984   T   T   T
  0.9444153829519416  0.2222720122037262  0.1956920785433367   T   T   T
  0.7779964400589886  0.5557882638406374  0.1959074667128433   T   T   T
  0.7780189336797371  0.3890968360959406  0.1955144183254135   T   T   T
  0.9445597140736182  0.3890167229069302  0.1956932828552790   T   T   T
  0.9446109067090622  0.5557489338946193  0.1957299038032212   T   T   T
  0.7778981115362571  0.8890422544342803  0.1956535650696198   T   T   T
  0.7780778325031027  0.7224907019510893  0.1955849102135795   T   T   T
  0.9446096705940931  0.7224558842441974  0.1956759561170456   T   T   T
  0.9444590043512454  0.8890409319940885  0.1957378663056206   T   T   T
  0.0000007087863530  0.0001175722136185  0.2940338854923222   T   T   T
 -0.0002380641446814  0.1665884040518895  0.2939980192539186   T   T   T
  0.1665834452209332  0.1667666783757225  0.2939995327200644   T   T   T
  0.1667919656161805  0.0003087006224425  0.2939449526216604   T   T   T
 -0.0003319037387184  0.3333227326382444  0.2940900982954279   T   T   T
  0.0000078417946095  0.5001280812186808  0.2941321525423401   T   T   T
  0.1659439479910401  0.5000160277932714  0.2937628348395327   T   T   T
  0.1654730620838604  0.3329023455680447  0.2936788353614328   T   T   T
  0.0002083510785709  0.6669634645973807  0.2938930620527369   T   T   T
  0.0001736342320118  0.8336563408516986  0.2939101036952235   T   T   T
  0.1667935211543772  0.8336296079314712  0.2938571762788183   T   T   T
  0.1666098832224802  0.6669040015638108  0.2938017596084184   T   T   T
  0.3333434422927303  0.0003080481029332  0.2940758188099939   T   T   T
  0.3331825423833754  0.1667573857037548  0.2939097669317658   T   T   T
  0.4999325278634282  0.1666914547075211  0.2941647320517436   T   T   T
  0.5000259408880060  0.0001770729059313  0.2942031554906075   T   T   T
  0.3328471762421137  0.3333442657579075  0.2941679581204442   T   T   T
  0.3325297142925027  0.5001615874665684  0.2958947172684032   T   T   T
  0.5014303797361340  0.5010153064770333  0.2945454162524685   T   T   T
  0.4999301281845354  0.3327552257080912  0.2930624403122626   T   T   T
  0.3331314933170501  0.6673025498580888  0.2929309491927874   T   T   T
  0.3334014618529570  0.8337696105841729  0.2938089637502364   T   T   T
  0.5001687755992010  0.8338965671955535  0.2936307938519148   T   T   T
  0.5003041086407082  0.6674880994747071  0.2930834741496983   T   T   T
  0.6666025400924760 -0.0000333505269288  0.2941934017043052   T   T   T
  0.6666496898692557  0.1665878876515534  0.2936994420011382   T   T   T
  0.8332209892068108  0.1666580335709004  0.2938683677373154   T   T   T
  0.8331843193015960 -0.0000468378472785  0.2941476225187267   T   T   T
  0.6669909485545857  0.3332121442389324  0.2930319221007734   T   T   T
  0.6676590971049291  0.5001571624443170  0.2945188348582659   T   T   T
  0.8338170796105887  0.5001342299964617  0.2939957407138847   T   T   T
  0.8333620329508431  0.3333259584738175  0.2938262746583782   T   T   T
  0.6676718927319654  0.6674511881667610  0.2935380906600319   T   T   T
  0.6667911642315691  0.8336481459589705  0.2939485634811574   T   T   T
  0.8333592849905077  0.8335671325409096  0.2942259203134729   T   T   T
  0.8338487989063493  0.6672370566538687  0.2939668238996204   T   T   T
  0.6643654571904689  0.4572998111386197  0.4435305673332261   T   T   T
  0.5688626927474904  0.2829943864879557  0.4513843353151544   T   T   T
  0.3716037164544332  0.6756359893801124  0.4475367466682233   T   T   T
  0.4029383635961186  0.5969786091240319  0.4380883475178049   T   T   T
  0.3311530659398047  0.4930547001934274  0.4330234728408364   T   T   T
  0.3591716764392171  0.4179627150894801  0.4301037823640939   T   T   T
  0.4633024636557667  0.4471267915429921  0.4327238033580131   T   T   T
  0.5372817234602495  0.5510234921429159  0.4332090719077756   T   T   T
  0.5077077874708137  0.6258085165566168  0.4369064921579783   T   T   T
  0.5817824884083092  0.3781056093966048  0.4434433442209225   T   T   T
  0.6625482101212200  0.2809787974038776  0.4595410395878652   T   T   T
  0.5816762765235719  0.7271426521712597  0.4424173823994095   T   T   T
  0.4873986072762513  0.3691701752509697  0.4353080773779652   T   T   T
  0.2503165969149075  0.4697617031585359  0.4336060622044440   T   T   T
  0.3009130772883387  0.3374083263813830  0.4294575575533476   T   T   T
  0.6176150165488291  0.5735942869530561  0.4350225909134207   T   T   T
  0.5624469257325274  0.7797696328765233  0.4288534061973153   T   T   T
  0.6534654768171936  0.7458325446036493  0.4290331987942867   T   T   T
  0.4276288332383102  0.2965164154971296  0.4337873552456813   T   T   T
  0.4004065895762724  0.7156709184722638  0.4929515364438001   T   T   T
  0.2882576429019482  0.6408039860690032  0.4467394267287883   T   T   T
  0.4023442063343717  0.7347575111293174  0.4101072431278588   T   T   T
  0.6397003653041499  0.2000435837732746  0.4611879085397631   T   T   T
  0.7141187817850276  0.3183695940367127  0.4193529248577670   T   T   T
  0.7003767712453050  0.3199584548302684  0.5035545986840965   T   T   T
 
  0.00000000E+00  0.00000000E+00  0.00000000E+00
  0.00000000E+00  0.00000000E+00  0.00000000E+00
  0.00000000E+00  0.00000000E+00  0.00000000E+00
  0.00000000E+00  0.00000000E+00  0.00000000E+00
  0.00000000E+00  0.00000000E+00  0.00000000E+00
  0.00000000E+00  0.00000000E+00  0.00000000E+00
  0.00000000E+00  0.00000000E+00  0.00000000E+00
  0.00000000E+00  0.00000000E+00  0.00000000E+00
  0.00000000E+00  0.00000000E+00  0.00000000E+00
  0.00000000E+00  0.00000000E+00  0.00000000E+00
  0.00000000E+00  0.00000000E+00  0.00000000E+00
  0.00000000E+00  0.00000000E+00  0.00000000E+00
  0.00000000E+00  0.00000000E+00  0.00000000E+00
  0.00000000E+00  0.00000000E+00  0.00000000E+00
  0.00000000E+00  0.00000000E+00  0.00000000E+00
  0.00000000E+00  0.00000000E+00  0.00000000E+00
  0.00000000E+00  0.00000000E+00  0.00000000E+00
  0.00000000E+00  0.00000000E+00  0.00000000E+00
  0.00000000E+00  0.00000000E+00  0.00000000E+00
  0.00000000E+00  0.00000000E+00  0.00000000E+00
  0.00000000E+00  0.00000000E+00  0.00000000E+00
  0.00000000E+00  0.00000000E+00  0.00000000E+00
  0.00000000E+00  0.00000000E+00  0.00000000E+00
  0.00000000E+00  0.00000000E+00  0.00000000E+00
  0.00000000E+00  0.00000000E+00  0.00000000E+00
  0.00000000E+00  0.00000000E+00  0.00000000E+00
  0.00000000E+00  0.00000000E+00  0.00000000E+00
  0.00000000E+00  0.00000000E+00  0.00000000E+00
  0.00000000E+00  0.00000000E+00  0.00000000E+00
  0.00000000E+00  0.00000000E+00  0.00000000E+00
  0.00000000E+00  0.00000000E+00  0.00000000E+00
  0.00000000E+00  0.00000000E+00  0.00000000E+00
  0.00000000E+00  0.00000000E+00  0.00000000E+00
  0.00000000E+00  0.00000000E+00  0.00000000E+00
  0.00000000E+00  0.00000000E+00  0.00000000E+00
  0.00000000E+00  0.00000000E+00  0.00000000E+00
  0.00000000E+00  0.00000000E+00  0.00000000E+00
  0.00000000E+00  0.00000000E+00  0.00000000E+00
  0.00000000E+00  0.00000000E+00  0.00000000E+00
  0.00000000E+00  0.00000000E+00  0.00000000E+00
  0.00000000E+00  0.00000000E+00  0.00000000E+00
  0.00000000E+00  0.00000000E+00  0.00000000E+00
  0.00000000E+00  0.00000000E+00  0.00000000E+00
  0.00000000E+00  0.00000000E+00  0.00000000E+00
  0.00000000E+00  0.00000000E+00  0.00000000E+00
  0.00000000E+00  0.00000000E+00  0.00000000E+00
  0.00000000E+00  0.00000000E+00  0.00000000E+00
  0.00000000E+00  0.00000000E+00  0.00000000E+00
  0.00000000E+00  0.00000000E+00  0.00000000E+00
  0.00000000E+00  0.00000000E+00  0.00000000E+00
  0.00000000E+00  0.00000000E+00  0.00000000E+00
  0.00000000E+00  0.00000000E+00  0.00000000E+00
  0.00000000E+00  0.00000000E+00  0.00000000E+00
  0.00000000E+00  0.00000000E+00  0.00000000E+00
  0.00000000E+00  0.00000000E+00  0.00000000E+00
  0.00000000E+00  0.00000000E+00  0.00000000E+00
  0.00000000E+00  0.00000000E+00  0.00000000E+00
  0.00000000E+00  0.00000000E+00  0.00000000E+00
  0.00000000E+00  0.00000000E+00  0.00000000E+00
  0.00000000E+00  0.00000000E+00  0.00000000E+00
  0.00000000E+00  0.00000000E+00  0.00000000E+00
  0.00000000E+00  0.00000000E+00  0.00000000E+00
  0.00000000E+00  0.00000000E+00  0.00000000E+00
  0.00000000E+00  0.00000000E+00  0.00000000E+00
  0.00000000E+00  0.00000000E+00  0.00000000E+00
  0.00000000E+00  0.00000000E+00  0.00000000E+00
  0.00000000E+00  0.00000000E+00  0.00000000E+00
  0.00000000E+00  0.00000000E+00  0.00000000E+00
  0.00000000E+00  0.00000000E+00  0.00000000E+00
  0.00000000E+00  0.00000000E+00  0.00000000E+00
  0.00000000E+00  0.00000000E+00  0.00000000E+00
  0.00000000E+00  0.00000000E+00  0.00000000E+00
  0.00000000E+00  0.00000000E+00  0.00000000E+00
  0.00000000E+00  0.00000000E+00  0.00000000E+00
  0.00000000E+00  0.00000000E+00  0.00000000E+00
  0.00000000E+00  0.00000000E+00  0.00000000E+00
  0.00000000E+00  0.00000000E+00  0.00000000E+00
  0.00000000E+00  0.00000000E+00  0.00000000E+00
  0.00000000E+00  0.00000000E+00  0.00000000E+00
  0.00000000E+00  0.00000000E+00  0.00000000E+00
  0.00000000E+00  0.00000000E+00  0.00000000E+00
  0.00000000E+00  0.00000000E+00  0.00000000E+00
  0.00000000E+00  0.00000000E+00  0.00000000E+00
  0.00000000E+00  0.00000000E+00  0.00000000E+00
  0.00000000E+00  0.00000000E+00  0.00000000E+00
  0.00000000E+00  0.00000000E+00  0.00000000E+00
  0.00000000E+00  0.00000000E+00  0.00000000E+00
  0.00000000E+00  0.00000000E+00  0.00000000E+00
  0.00000000E+00  0.00000000E+00  0.00000000E+00
  0.00000000E+00  0.00000000E+00  0.00000000E+00
  0.00000000E+00  0.00000000E+00  0.00000000E+00
  0.00000000E+00  0.00000000E+00  0.00000000E+00
  0.00000000E+00  0.00000000E+00  0.00000000E+00
  0.00000000E+00  0.00000000E+00  0.00000000E+00
  0.00000000E+00  0.00000000E+00  0.00000000E+00
  0.00000000E+00  0.00000000E+00  0.00000000E+00
  0.00000000E+00  0.00000000E+00  0.00000000E+00
  0.00000000E+00  0.00000000E+00  0.00000000E+00
  0.00000000E+00  0.00000000E+00  0.00000000E+00
  0.00000000E+00  0.00000000E+00  0.00000000E+00
  0.00000000E+00  0.00000000E+00  0.00000000E+00
  0.00000000E+00  0.00000000E+00  0.00000000E+00
  0.00000000E+00  0.00000000E+00  0.00000000E+00
  0.00000000E+00  0.00000000E+00  0.00000000E+00
  0.00000000E+00  0.00000000E+00  0.00000000E+00
  0.00000000E+00  0.00000000E+00  0.00000000E+00
  0.00000000E+00  0.00000000E+00  0.00000000E+00
  0.00000000E+00  0.00000000E+00  0.00000000E+00
  0.00000000E+00  0.00000000E+00  0.00000000E+00
  0.00000000E+00  0.00000000E+00  0.00000000E+00
  0.00000000E+00  0.00000000E+00  0.00000000E+00
  0.00000000E+00  0.00000000E+00  0.00000000E+00
  0.00000000E+00  0.00000000E+00  0.00000000E+00
  0.00000000E+00  0.00000000E+00  0.00000000E+00
  0.00000000E+00  0.00000000E+00  0.00000000E+00
  0.00000000E+00  0.00000000E+00  0.00000000E+00
  0.00000000E+00  0.00000000E+00  0.00000000E+00
  0.00000000E+00  0.00000000E+00  0.00000000E+00
  0.00000000E+00  0.00000000E+00  0.00000000E+00
  0.00000000E+00  0.00000000E+00  0.00000000E+00
  0.00000000E+00  0.00000000E+00  0.00000000E+00
  0.00000000E+00  0.00000000E+00  0.00000000E+00
  0.00000000E+00  0.00000000E+00  0.00000000E+00
  0.00000000E+00  0.00000000E+00  0.00000000E+00
  0.00000000E+00  0.00000000E+00  0.00000000E+00
  0.00000000E+00  0.00000000E+00  0.00000000E+00
  0.00000000E+00  0.00000000E+00  0.00000000E+00
  0.00000000E+00  0.00000000E+00  0.00000000E+00
  0.00000000E+00  0.00000000E+00  0.00000000E+00
  0.00000000E+00  0.00000000E+00  0.00000000E+00
  0.00000000E+00  0.00000000E+00  0.00000000E+00
  0.00000000E+00  0.00000000E+00  0.00000000E+00
  0.00000000E+00  0.00000000E+00  0.00000000E+00
  0.00000000E+00  0.00000000E+00  0.00000000E+00
  0.00000000E+00  0.00000000E+00  0.00000000E+00
  0.00000000E+00  0.00000000E+00  0.00000000E+00
  0.00000000E+00  0.00000000E+00  0.00000000E+00
  0.00000000E+00  0.00000000E+00  0.00000000E+00
  0.00000000E+00  0.00000000E+00  0.00000000E+00
  0.00000000E+00  0.00000000E+00  0.00000000E+00
  0.00000000E+00  0.00000000E+00  0.00000000E+00
  0.00000000E+00  0.00000000E+00  0.00000000E+00
  0.00000000E+00  0.00000000E+00  0.00000000E+00
  0.00000000E+00  0.00000000E+00  0.00000000E+00
  0.00000000E+00  0.00000000E+00  0.00000000E+00
  0.00000000E+00  0.00000000E+00  0.00000000E+00
  0.00000000E+00  0.00000000E+00  0.00000000E+00
  0.00000000E+00  0.00000000E+00  0.00000000E+00
  0.00000000E+00  0.00000000E+00  0.00000000E+00
  0.00000000E+00  0.00000000E+00  0.00000000E+00
  0.00000000E+00  0.00000000E+00  0.00000000E+00
  0.00000000E+00  0.00000000E+00  0.00000000E+00
  0.00000000E+00  0.00000000E+00  0.00000000E+00
  0.00000000E+00  0.00000000E+00  0.00000000E+00
  0.00000000E+00  0.00000000E+00  0.00000000E+00
  0.00000000E+00  0.00000000E+00  0.00000000E+00
  0.00000000E+00  0.00000000E+00  0.00000000E+00
  0.00000000E+00  0.00000000E+00  0.00000000E+00
  0.00000000E+00  0.00000000E+00  0.00000000E+00
  0.00000000E+00  0.00000000E+00  0.00000000E+00
  0.00000000E+00  0.00000000E+00  0.00000000E+00
  0.00000000E+00  0.00000000E+00  0.00000000E+00
  0.00000000E+00  0.00000000E+00  0.00000000E+00
  0.00000000E+00  0.00000000E+00  0.00000000E+00
  0.00000000E+00  0.00000000E+00  0.00000000E+00
  0.00000000E+00  0.00000000E+00  0.00000000E+00
  0.00000000E+00  0.00000000E+00  0.00000000E+00
  0.00000000E+00  0.00000000E+00  0.00000000E+00
  0.00000000E+00  0.00000000E+00  0.00000000E+00
