Cu  C  N  H                             
   1.00000000000000     
    15.1479005814000001    0.0000000000000000    0.0000000000000000
    -7.5739502907000000   13.1184667176000005    0.0000000000000000
     0.0000000000000000    0.0000000000000000   21.1840000153000005
   Cu   C    N    H 
   144     7     2    10
Selective dynamics
Direct
  0.0000000000000000  0.0000000000000000  0.0000000000000000   F   F   F
  0.0000000000033040  0.1666666666666643  0.0000000000000000   F   F   F
  0.1666666666633674  0.1666666666666643  0.0000000000000000   F   F   F
  0.1666666666666643  0.0000000000000000  0.0000000000000000   F   F   F
  0.0000000000000000  0.3333333333333357  0.0000000000000000   F   F   F
  0.0000000000033040  0.5000000000000000  0.0000000000000000   F   F   F
  0.1666666666699683  0.5000000000000000  0.0000000000000000   F   F   F
  0.1666666666666643  0.3333333333333357  0.0000000000000000   F   F   F
  0.0000000000000000  0.6666666666666643  0.0000000000000000   F   F   F
  0.0000000000033040  0.8333333333333357  0.0000000000000000   F   F   F
  0.1666666666699683  0.8333333333333357  0.0000000000000000   F   F   F
  0.1666666666666643  0.6666666666666643  0.0000000000000000   F   F   F
  0.3333333333333357  0.0000000000000000  0.0000000000000000   F   F   F
  0.3333333333300317  0.1666666666666643  0.0000000000000000   F   F   F
  0.4999999999966960  0.1666666666666643  0.0000000000000000   F   F   F
  0.5000000000000000  0.0000000000000000  0.0000000000000000   F   F   F
  0.3333333333333357  0.3333333333333357  0.0000000000000000   F   F   F
  0.3333333333300317  0.5000000000000000  0.0000000000000000   F   F   F
  0.5000000000033040  0.5000000000000000  0.0000000000000000   F   F   F
  0.5000000000000000  0.3333333333333357  0.0000000000000000   F   F   F
  0.3333333333333357  0.6666666666666643  0.0000000000000000   F   F   F
  0.3333333333300317  0.8333333333333357  0.0000000000000000   F   F   F
  0.5000000000033040  0.8333333333333357  0.0000000000000000   F   F   F
  0.5000000000000000  0.6666666666666643  0.0000000000000000   F   F   F
  0.6666666666666643  0.0000000000000000  0.0000000000000000   F   F   F
  0.6666666666633674  0.1666666666666643  0.0000000000000000   F   F   F
  0.8333333333300317  0.1666666666666643  0.0000000000000000   F   F   F
  0.8333333333333357  0.0000000000000000  0.0000000000000000   F   F   F
  0.6666666666666643  0.3333333333333357  0.0000000000000000   F   F   F
  0.6666666666633674  0.5000000000000000  0.0000000000000000   F   F   F
  0.8333333333300317  0.5000000000000000  0.0000000000000000   F   F   F
  0.8333333333333357  0.3333333333333357  0.0000000000000000   F   F   F
  0.6666666666666643  0.6666666666666643  0.0000000000000000   F   F   F
  0.6666666666633674  0.8333333333333357  0.0000000000000000   F   F   F
  0.8333333333300317  0.8333333333333357  0.0000000000000000   F   F   F
  0.8333333333333357  0.6666666666666643  0.0000000000000000   F   F   F
  0.2222233413375676  0.1111100016699709  0.0973099989997692   F   F   F
  0.2222233413299222  0.2777766586632495  0.0973099989997692   F   F   F
  0.0555566649985550  0.2777766586632495  0.0973099989997692   F   F   F
  0.0555566649995924  0.1111100016699709  0.0973099989997692   F   F   F
  0.2222233413375676  0.4444433350033066  0.0973099989997692   F   F   F
  0.2222233413299222  0.6111099919965852  0.0973099989997692   F   F   F
  0.0555566649985550  0.6111099919965852  0.0973099989997692   F   F   F
  0.0555566649995924  0.4444433350033066  0.0973099989997692   F   F   F
  0.2222233413375676  0.7777766683366352  0.0973099989997692   F   F   F
  0.2222233413299222  0.9444433253299209  0.0973099989997692   F   F   F
  0.0555566649985550  0.9444433253299209  0.0973099989997692   F   F   F
  0.0555566649995924  0.7777766683366352  0.0973099989997692   F   F   F
  0.5555566746708962  0.1111100016699709  0.0973099989997692   F   F   F
  0.5555566746632579  0.2777766586632495  0.0973099989997692   F   F   F
  0.3888899983318836  0.2777766586632495  0.0973099989997692   F   F   F
  0.3888899983329281  0.1111100016699709  0.0973099989997692   F   F   F
  0.5555566746708962  0.4444433350033066  0.0973099989997692   F   F   F
  0.5555566746632579  0.6111099919965852  0.0973099989997692   F   F   F
  0.3888899983318836  0.6111099919965852  0.0973099989997692   F   F   F
  0.3888899983329281  0.4444433350033066  0.0973099989997692   F   F   F
  0.5555566746708962  0.7777766683366352  0.0973099989997692   F   F   F
  0.5555566746632579  0.9444433253299209  0.0973099989997692   F   F   F
  0.3888899983318836  0.9444433253299209  0.0973099989997692   F   F   F
  0.3888899983329281  0.7777766683366352  0.0973099989997692   F   F   F
  0.8888900080042319  0.1111100016699709  0.0973099989997692   F   F   F
  0.8888900079965936  0.2777766586632495  0.0973099989997692   F   F   F
  0.7222233316652193  0.2777766586632495  0.0973099989997692   F   F   F
  0.7222233316662567  0.1111100016699709  0.0973099989997692   F   F   F
  0.8888900080042319  0.4444433350033066  0.0973099989997692   F   F   F
  0.8888900079965936  0.6111099919965852  0.0973099989997692   F   F   F
  0.7222233316652193  0.6111099919965852  0.0973099989997692   F   F   F
  0.7222233316662567  0.4444433350033066  0.0973099989997692   F   F   F
  0.8888900080042319  0.7777766683366352  0.0973099989997692   F   F   F
  0.8888900079965936  0.9444433253299209  0.0973099989997692   F   F   F
  0.7222233316652193  0.9444433253299209  0.0973099989997692   F   F   F
  0.7222233316662567  0.7777766683366352  0.0973099989997692   F   F   F
  0.1112198474177547  0.2221812446424911  0.1955502627340135   T   T   T
  0.1111467619414877  0.0556106373838032  0.1957056931863423   T   T   T
  0.2777412103575378  0.0555830568458779  0.1956604376915649   T   T   T
  0.2776981326998118  0.2220542249014683  0.1953403258210663   T   T   T
  0.1110839482758169  0.5556606783439902  0.1953544442083486   T   T   T
  0.1109308412366092  0.3885638014831873  0.1954295938611825   T   T   T
  0.2782399487998508  0.3896050463366474  0.1964864572914529   T   T   T
  0.2780113530521992  0.5550201722046123  0.1962688542083814   T   T   T
  0.1110580048768365  0.8889882797193037  0.1956762376690455   T   T   T
  0.1110385415089898  0.7224232252912260  0.1955627403736890   T   T   T
  0.2776102138386936  0.7224789472242810  0.1948738574274687   T   T   T
  0.2776342330957581  0.8890765107759262  0.1955715843447578   T   T   T
  0.4443002459250460  0.2220025389634435  0.1954279544953178   T   T   T
  0.4443880027015157  0.0555277906998278  0.1958524791308777   T   T   T
  0.6110252435492544  0.0555743496327561  0.1957654323123438   T   T   T
  0.6110082973762566  0.2221998841292472  0.1957174491652514   T   T   T
  0.4442817444704876  0.5563514658249664  0.1986701929711850   T   T   T
  0.4445604119014549  0.3892652136454061  0.1957208404135151   T   T   T
  0.6112643713463459  0.3888773253162832  0.1953847099119220   T   T   T
  0.6110791562912730  0.5557218449348937  0.1956755405735005   T   T   T
  0.4443140537302858  0.8889359548944300  0.1953976369050267   T   T   T
  0.4450450690671499  0.7219188932611811  0.1966772773591792   T   T   T
  0.6100737482682800  0.7217260602681812  0.1969418250953871   T   T   T
  0.6112557207977686  0.8890697345747266  0.1954637781089643   T   T   T
  0.7777514938338521  0.2222260432388020  0.1956871069310546   T   T   T
  0.7778210626401321  0.0556177266088950  0.1956899312188607   T   T   T
  0.9444938632515848  0.0556399707772038  0.1957678981080789   T   T   T
  0.9445060060722662  0.2222212268131508  0.1957677991828882   T   T   T
  0.7781088160992772  0.5557706419407695  0.1954815762350020   T   T   T
  0.7778310726204403  0.3889405052741629  0.1956928599033941   T   T   T
  0.9445222418220732  0.3889281892670594  0.1958031645241673   T   T   T
  0.9445704628797070  0.5556245092903138  0.1958011938660831   T   T   T
  0.7778516299453030  0.8888690258226682  0.1955091563403715   T   T   T
  0.7778249616422677  0.7223724860136851  0.1955338776802282   T   T   T
  0.9444837711631310  0.7223378522328334  0.1956430684762050   T   T   T
  0.9445195023868438  0.8889956196562848  0.1956845967169932   T   T   T
  0.0001781397555172  0.0001247651574068  0.2940465415916847   T   T   T
 -0.0000389272631285  0.1665536257322632  0.2941509419343075   T   T   T
  0.1666668949731888  0.1666247705361196  0.2940788329067574   T   T   T
  0.1667205682272249  0.0001080439079802  0.2939227662880550   T   T   T
 -0.0003635727667623  0.3330583777395362  0.2941659769800334   T   T   T
 -0.0002268064717715  0.5000576604548550  0.2942650832027702   T   T   T
  0.1647247996185410  0.4991980915324693  0.2931400360594264   T   T   T
  0.1653774251936496  0.3322452766917686  0.2938566956921038   T   T   T
 -0.0000372993901402  0.6668513164397892  0.2940464310781750   T   T   T
  0.0000539549094480  0.8334443312893838  0.2939230102188425   T   T   T
  0.1666004393840645  0.8334292648487145  0.2939064026334434   T   T   T
  0.1658815103472426  0.6666650563428939  0.2935965611584341   T   T   T
  0.3331779465697245  0.0000620060194840  0.2941413212008402   T   T   T
  0.3333857765811671  0.1663072147789404  0.2940779997390905   T   T   T
  0.4999510091558912  0.1665907695805516  0.2942365336448081   T   T   T
  0.4998842451371119  0.0003735821550685  0.2943073717586803   T   T   T
  0.3331994615086677  0.3318075788422458  0.2930391712992602   T   T   T
  0.3311323872973637  0.4982447479182190  0.2974695819210539   T   T   T
  0.5014273867683715  0.4995222757845084  0.2937036729898627   T   T   T
  0.5002721141304243  0.3323699185541686  0.2931899614970916   T   T   T
  0.3316523796357971  0.6676064609875096  0.2914634215775973   T   T   T
  0.3331660013952252  0.8339655176739478  0.2936701299765949   T   T   T
  0.5003573387314150  0.8353638499406063  0.2932547978427336   T   T   T
  0.5011523968077300  0.6692024150440892  0.2995805897042461   T   T   T
  0.6669392147619261  0.0006188338202232  0.2940616517374133   T   T   T
  0.6666834478599598  0.1667943805975317  0.2939634174800363   T   T   T
  0.8333629343069792  0.1667748475862570  0.2939298256971116   T   T   T
  0.8337643073811253  0.0004661220983603  0.2940213831081613   T   T   T
  0.6668264505394839  0.3331760322257991  0.2939195452221222   T   T   T
  0.6677590669271523  0.4997991511011491  0.2931744336844834   T   T   T
  0.8335750010489293  0.5000661248013512  0.2940104315465580   T   T   T
  0.8333114706511479  0.3333390401465428  0.2939166928951704   T   T   T
  0.6680197567219209  0.6671832925257047  0.2934261540706905   T   T   T
  0.6680668246589067  0.8353015449812001  0.2934357593383494   T   T   T
  0.8336520538840020  0.8336442888591220  0.2939338350624905   T   T   T
  0.8336929906888391  0.6668047557917103  0.2940161516269528   T   T   T
  0.5688588211771843  0.4683430981127570  0.4447869332965432   T   T   T
  0.5046254952050260  0.5154758130052459  0.4294944950302506   T   T   T
  0.5477619826392004  0.6207650404364126  0.4216738620323871   T   T   T
  0.4892515345798042  0.6689653479371378  0.4141972256386874   T   T   T
  0.3813416462555921  0.6088782235298232  0.4193889614524656   T   T   T
  0.3358270321178504  0.5014880853740328  0.4195436624934504   T   T   T
  0.3962834250684295  0.4549450743579812  0.4276920640338159   T   T   T
  0.3496318632246058  0.3514711184700112  0.4362500592559530   T   T   T
  0.3229204957759572  0.6542441646745655  0.4254828600643821   T   T   T
  0.6306854693732151  0.6683962126620395  0.4234715980085896   T   T   T
  0.5259960184850778  0.7517790705221300  0.4172364110313688   T   T   T
  0.2532598574305027  0.4546715006534582  0.4245907190925309   T   T   T
  0.3913983543948770  0.3170246211177205  0.4278612883931586   T   T   T
  0.2752976667277697  0.3088727060198935  0.4230152708583867   T   T   T
  0.3548154882254164  0.7291862399476394  0.4134771716862694   T   T   T
  0.2471231935379138  0.6121678376924712  0.4154495918521334   T   T   T
  0.5517705341246149  0.4346761024722479  0.4925409872368587   T   T   T
  0.6502873782745946  0.5256187200732252  0.4423806392411671   T   T   T
  0.5561285378561035  0.4069866414446046  0.4112725339805163   T   T   T
 
  0.00000000E+00  0.00000000E+00  0.00000000E+00
  0.00000000E+00  0.00000000E+00  0.00000000E+00
  0.00000000E+00  0.00000000E+00  0.00000000E+00
  0.00000000E+00  0.00000000E+00  0.00000000E+00
  0.00000000E+00  0.00000000E+00  0.00000000E+00
  0.00000000E+00  0.00000000E+00  0.00000000E+00
  0.00000000E+00  0.00000000E+00  0.00000000E+00
  0.00000000E+00  0.00000000E+00  0.00000000E+00
  0.00000000E+00  0.00000000E+00  0.00000000E+00
  0.00000000E+00  0.00000000E+00  0.00000000E+00
  0.00000000E+00  0.00000000E+00  0.00000000E+00
  0.00000000E+00  0.00000000E+00  0.00000000E+00
  0.00000000E+00  0.00000000E+00  0.00000000E+00
  0.00000000E+00  0.00000000E+00  0.00000000E+00
  0.00000000E+00  0.00000000E+00  0.00000000E+00
  0.00000000E+00  0.00000000E+00  0.00000000E+00
  0.00000000E+00  0.00000000E+00  0.00000000E+00
  0.00000000E+00  0.00000000E+00  0.00000000E+00
  0.00000000E+00  0.00000000E+00  0.00000000E+00
  0.00000000E+00  0.00000000E+00  0.00000000E+00
  0.00000000E+00  0.00000000E+00  0.00000000E+00
  0.00000000E+00  0.00000000E+00  0.00000000E+00
  0.00000000E+00  0.00000000E+00  0.00000000E+00
  0.00000000E+00  0.00000000E+00  0.00000000E+00
  0.00000000E+00  0.00000000E+00  0.00000000E+00
  0.00000000E+00  0.00000000E+00  0.00000000E+00
  0.00000000E+00  0.00000000E+00  0.00000000E+00
  0.00000000E+00  0.00000000E+00  0.00000000E+00
  0.00000000E+00  0.00000000E+00  0.00000000E+00
  0.00000000E+00  0.00000000E+00  0.00000000E+00
  0.00000000E+00  0.00000000E+00  0.00000000E+00
  0.00000000E+00  0.00000000E+00  0.00000000E+00
  0.00000000E+00  0.00000000E+00  0.00000000E+00
  0.00000000E+00  0.00000000E+00  0.00000000E+00
  0.00000000E+00  0.00000000E+00  0.00000000E+00
  0.00000000E+00  0.00000000E+00  0.00000000E+00
  0.00000000E+00  0.00000000E+00  0.00000000E+00
  0.00000000E+00  0.00000000E+00  0.00000000E+00
  0.00000000E+00  0.00000000E+00  0.00000000E+00
  0.00000000E+00  0.00000000E+00  0.00000000E+00
  0.00000000E+00  0.00000000E+00  0.00000000E+00
  0.00000000E+00  0.00000000E+00  0.00000000E+00
  0.00000000E+00  0.00000000E+00  0.00000000E+00
  0.00000000E+00  0.00000000E+00  0.00000000E+00
  0.00000000E+00  0.00000000E+00  0.00000000E+00
  0.00000000E+00  0.00000000E+00  0.00000000E+00
  0.00000000E+00  0.00000000E+00  0.00000000E+00
  0.00000000E+00  0.00000000E+00  0.00000000E+00
  0.00000000E+00  0.00000000E+00  0.00000000E+00
  0.00000000E+00  0.00000000E+00  0.00000000E+00
  0.00000000E+00  0.00000000E+00  0.00000000E+00
  0.00000000E+00  0.00000000E+00  0.00000000E+00
  0.00000000E+00  0.00000000E+00  0.00000000E+00
  0.00000000E+00  0.00000000E+00  0.00000000E+00
  0.00000000E+00  0.00000000E+00  0.00000000E+00
  0.00000000E+00  0.00000000E+00  0.00000000E+00
  0.00000000E+00  0.00000000E+00  0.00000000E+00
  0.00000000E+00  0.00000000E+00  0.00000000E+00
  0.00000000E+00  0.00000000E+00  0.00000000E+00
  0.00000000E+00  0.00000000E+00  0.00000000E+00
  0.00000000E+00  0.00000000E+00  0.00000000E+00
  0.00000000E+00  0.00000000E+00  0.00000000E+00
  0.00000000E+00  0.00000000E+00  0.00000000E+00
  0.00000000E+00  0.00000000E+00  0.00000000E+00
  0.00000000E+00  0.00000000E+00  0.00000000E+00
  0.00000000E+00  0.00000000E+00  0.00000000E+00
  0.00000000E+00  0.00000000E+00  0.00000000E+00
  0.00000000E+00  0.00000000E+00  0.00000000E+00
  0.00000000E+00  0.00000000E+00  0.00000000E+00
  0.00000000E+00  0.00000000E+00  0.00000000E+00
  0.00000000E+00  0.00000000E+00  0.00000000E+00
  0.00000000E+00  0.00000000E+00  0.00000000E+00
  0.00000000E+00  0.00000000E+00  0.00000000E+00
  0.00000000E+00  0.00000000E+00  0.00000000E+00
  0.00000000E+00  0.00000000E+00  0.00000000E+00
  0.00000000E+00  0.00000000E+00  0.00000000E+00
  0.00000000E+00  0.00000000E+00  0.00000000E+00
  0.00000000E+00  0.00000000E+00  0.00000000E+00
  0.00000000E+00  0.00000000E+00  0.00000000E+00
  0.00000000E+00  0.00000000E+00  0.00000000E+00
  0.00000000E+00  0.00000000E+00  0.00000000E+00
  0.00000000E+00  0.00000000E+00  0.00000000E+00
  0.00000000E+00  0.00000000E+00  0.00000000E+00
  0.00000000E+00  0.00000000E+00  0.00000000E+00
  0.00000000E+00  0.00000000E+00  0.00000000E+00
  0.00000000E+00  0.00000000E+00  0.00000000E+00
  0.00000000E+00  0.00000000E+00  0.00000000E+00
  0.00000000E+00  0.00000000E+00  0.00000000E+00
  0.00000000E+00  0.00000000E+00  0.00000000E+00
  0.00000000E+00  0.00000000E+00  0.00000000E+00
  0.00000000E+00  0.00000000E+00  0.00000000E+00
  0.00000000E+00  0.00000000E+00  0.00000000E+00
  0.00000000E+00  0.00000000E+00  0.00000000E+00
  0.00000000E+00  0.00000000E+00  0.00000000E+00
  0.00000000E+00  0.00000000E+00  0.00000000E+00
  0.00000000E+00  0.00000000E+00  0.00000000E+00
  0.00000000E+00  0.00000000E+00  0.00000000E+00
  0.00000000E+00  0.00000000E+00  0.00000000E+00
  0.00000000E+00  0.00000000E+00  0.00000000E+00
  0.00000000E+00  0.00000000E+00  0.00000000E+00
  0.00000000E+00  0.00000000E+00  0.00000000E+00
  0.00000000E+00  0.00000000E+00  0.00000000E+00
  0.00000000E+00  0.00000000E+00  0.00000000E+00
  0.00000000E+00  0.00000000E+00  0.00000000E+00
  0.00000000E+00  0.00000000E+00  0.00000000E+00
  0.00000000E+00  0.00000000E+00  0.00000000E+00
  0.00000000E+00  0.00000000E+00  0.00000000E+00
  0.00000000E+00  0.00000000E+00  0.00000000E+00
  0.00000000E+00  0.00000000E+00  0.00000000E+00
  0.00000000E+00  0.00000000E+00  0.00000000E+00
  0.00000000E+00  0.00000000E+00  0.00000000E+00
  0.00000000E+00  0.00000000E+00  0.00000000E+00
  0.00000000E+00  0.00000000E+00  0.00000000E+00
  0.00000000E+00  0.00000000E+00  0.00000000E+00
  0.00000000E+00  0.00000000E+00  0.00000000E+00
  0.00000000E+00  0.00000000E+00  0.00000000E+00
  0.00000000E+00  0.00000000E+00  0.00000000E+00
  0.00000000E+00  0.00000000E+00  0.00000000E+00
  0.00000000E+00  0.00000000E+00  0.00000000E+00
  0.00000000E+00  0.00000000E+00  0.00000000E+00
  0.00000000E+00  0.00000000E+00  0.00000000E+00
  0.00000000E+00  0.00000000E+00  0.00000000E+00
  0.00000000E+00  0.00000000E+00  0.00000000E+00
  0.00000000E+00  0.00000000E+00  0.00000000E+00
  0.00000000E+00  0.00000000E+00  0.00000000E+00
  0.00000000E+00  0.00000000E+00  0.00000000E+00
  0.00000000E+00  0.00000000E+00  0.00000000E+00
  0.00000000E+00  0.00000000E+00  0.00000000E+00
  0.00000000E+00  0.00000000E+00  0.00000000E+00
  0.00000000E+00  0.00000000E+00  0.00000000E+00
  0.00000000E+00  0.00000000E+00  0.00000000E+00
  0.00000000E+00  0.00000000E+00  0.00000000E+00
  0.00000000E+00  0.00000000E+00  0.00000000E+00
  0.00000000E+00  0.00000000E+00  0.00000000E+00
  0.00000000E+00  0.00000000E+00  0.00000000E+00
  0.00000000E+00  0.00000000E+00  0.00000000E+00
  0.00000000E+00  0.00000000E+00  0.00000000E+00
  0.00000000E+00  0.00000000E+00  0.00000000E+00
  0.00000000E+00  0.00000000E+00  0.00000000E+00
  0.00000000E+00  0.00000000E+00  0.00000000E+00
  0.00000000E+00  0.00000000E+00  0.00000000E+00
  0.00000000E+00  0.00000000E+00  0.00000000E+00
  0.00000000E+00  0.00000000E+00  0.00000000E+00
  0.00000000E+00  0.00000000E+00  0.00000000E+00
  0.00000000E+00  0.00000000E+00  0.00000000E+00
  0.00000000E+00  0.00000000E+00  0.00000000E+00
  0.00000000E+00  0.00000000E+00  0.00000000E+00
  0.00000000E+00  0.00000000E+00  0.00000000E+00
  0.00000000E+00  0.00000000E+00  0.00000000E+00
  0.00000000E+00  0.00000000E+00  0.00000000E+00
  0.00000000E+00  0.00000000E+00  0.00000000E+00
  0.00000000E+00  0.00000000E+00  0.00000000E+00
  0.00000000E+00  0.00000000E+00  0.00000000E+00
  0.00000000E+00  0.00000000E+00  0.00000000E+00
  0.00000000E+00  0.00000000E+00  0.00000000E+00
  0.00000000E+00  0.00000000E+00  0.00000000E+00
  0.00000000E+00  0.00000000E+00  0.00000000E+00
  0.00000000E+00  0.00000000E+00  0.00000000E+00
  0.00000000E+00  0.00000000E+00  0.00000000E+00
  0.00000000E+00  0.00000000E+00  0.00000000E+00
  0.00000000E+00  0.00000000E+00  0.00000000E+00
  0.00000000E+00  0.00000000E+00  0.00000000E+00
  0.00000000E+00  0.00000000E+00  0.00000000E+00
