Cu  O  C  N  H                          
   1.00000000000000     
    15.1479005814000001    0.0000000000000000    0.0000000000000000
    -7.5739502907000000   13.1184667176000005    0.0000000000000000
     0.0000000000000000    0.0000000000000000   21.1840000153000005
   Cu   O    C    N    H 
   144     2     9     2    12
Selective dynamics
Direct
  0.0000000000000000  0.0000000000000000  0.0000000000000000   F   F   F
  0.0000000000033040  0.1666666666666643  0.0000000000000000   F   F   F
  0.1666666666633674  0.1666666666666643  0.0000000000000000   F   F   F
  0.1666666666666643  0.0000000000000000  0.0000000000000000   F   F   F
  0.0000000000000000  0.3333333333333357  0.0000000000000000   F   F   F
  0.0000000000033040  0.5000000000000000  0.0000000000000000   F   F   F
  0.1666666666699683  0.5000000000000000  0.0000000000000000   F   F   F
  0.1666666666666643  0.3333333333333357  0.0000000000000000   F   F   F
  0.0000000000000000  0.6666666666666643  0.0000000000000000   F   F   F
  0.0000000000033040  0.8333333333333357  0.0000000000000000   F   F   F
  0.1666666666699683  0.8333333333333357  0.0000000000000000   F   F   F
  0.1666666666666643  0.6666666666666643  0.0000000000000000   F   F   F
  0.3333333333333357  0.0000000000000000  0.0000000000000000   F   F   F
  0.3333333333300317  0.1666666666666643  0.0000000000000000   F   F   F
  0.4999999999966960  0.1666666666666643  0.0000000000000000   F   F   F
  0.5000000000000000  0.0000000000000000  0.0000000000000000   F   F   F
  0.3333333333333357  0.3333333333333357  0.0000000000000000   F   F   F
  0.3333333333300317  0.5000000000000000  0.0000000000000000   F   F   F
  0.5000000000033040  0.5000000000000000  0.0000000000000000   F   F   F
  0.5000000000000000  0.3333333333333357  0.0000000000000000   F   F   F
  0.3333333333333357  0.6666666666666643  0.0000000000000000   F   F   F
  0.3333333333300317  0.8333333333333357  0.0000000000000000   F   F   F
  0.5000000000033040  0.8333333333333357  0.0000000000000000   F   F   F
  0.5000000000000000  0.6666666666666643  0.0000000000000000   F   F   F
  0.6666666666666643  0.0000000000000000  0.0000000000000000   F   F   F
  0.6666666666633674  0.1666666666666643  0.0000000000000000   F   F   F
  0.8333333333300317  0.1666666666666643  0.0000000000000000   F   F   F
  0.8333333333333357  0.0000000000000000  0.0000000000000000   F   F   F
  0.6666666666666643  0.3333333333333357  0.0000000000000000   F   F   F
  0.6666666666633674  0.5000000000000000  0.0000000000000000   F   F   F
  0.8333333333300317  0.5000000000000000  0.0000000000000000   F   F   F
  0.8333333333333357  0.3333333333333357  0.0000000000000000   F   F   F
  0.6666666666666643  0.6666666666666643  0.0000000000000000   F   F   F
  0.6666666666633674  0.8333333333333357  0.0000000000000000   F   F   F
  0.8333333333300317  0.8333333333333357  0.0000000000000000   F   F   F
  0.8333333333333357  0.6666666666666643  0.0000000000000000   F   F   F
  0.2222233413375676  0.1111100016699709  0.0973099989997692   F   F   F
  0.2222233413299222  0.2777766586632495  0.0973099989997692   F   F   F
  0.0555566649985550  0.2777766586632495  0.0973099989997692   F   F   F
  0.0555566649995924  0.1111100016699709  0.0973099989997692   F   F   F
  0.2222233413375676  0.4444433350033066  0.0973099989997692   F   F   F
  0.2222233413299222  0.6111099919965852  0.0973099989997692   F   F   F
  0.0555566649985550  0.6111099919965852  0.0973099989997692   F   F   F
  0.0555566649995924  0.4444433350033066  0.0973099989997692   F   F   F
  0.2222233413375676  0.7777766683366352  0.0973099989997692   F   F   F
  0.2222233413299222  0.9444433253299209  0.0973099989997692   F   F   F
  0.0555566649985550  0.9444433253299209  0.0973099989997692   F   F   F
  0.0555566649995924  0.7777766683366352  0.0973099989997692   F   F   F
  0.5555566746708962  0.1111100016699709  0.0973099989997692   F   F   F
  0.5555566746632579  0.2777766586632495  0.0973099989997692   F   F   F
  0.3888899983318836  0.2777766586632495  0.0973099989997692   F   F   F
  0.3888899983329281  0.1111100016699709  0.0973099989997692   F   F   F
  0.5555566746708962  0.4444433350033066  0.0973099989997692   F   F   F
  0.5555566746632579  0.6111099919965852  0.0973099989997692   F   F   F
  0.3888899983318836  0.6111099919965852  0.0973099989997692   F   F   F
  0.3888899983329281  0.4444433350033066  0.0973099989997692   F   F   F
  0.5555566746708962  0.7777766683366352  0.0973099989997692   F   F   F
  0.5555566746632579  0.9444433253299209  0.0973099989997692   F   F   F
  0.3888899983318836  0.9444433253299209  0.0973099989997692   F   F   F
  0.3888899983329281  0.7777766683366352  0.0973099989997692   F   F   F
  0.8888900080042319  0.1111100016699709  0.0973099989997692   F   F   F
  0.8888900079965936  0.2777766586632495  0.0973099989997692   F   F   F
  0.7222233316652193  0.2777766586632495  0.0973099989997692   F   F   F
  0.7222233316662567  0.1111100016699709  0.0973099989997692   F   F   F
  0.8888900080042319  0.4444433350033066  0.0973099989997692   F   F   F
  0.8888900079965936  0.6111099919965852  0.0973099989997692   F   F   F
  0.7222233316652193  0.6111099919965852  0.0973099989997692   F   F   F
  0.7222233316662567  0.4444433350033066  0.0973099989997692   F   F   F
  0.8888900080042319  0.7777766683366352  0.0973099989997692   F   F   F
  0.8888900079965936  0.9444433253299209  0.0973099989997692   F   F   F
  0.7222233316652193  0.9444433253299209  0.0973099989997692   F   F   F
  0.7222233316662567  0.7777766683366352  0.0973099989997692   F   F   F
  0.1108735371000224  0.2219517537278930  0.1955106944441691   T   T   T
  0.1110553462400899  0.0555593956022353  0.1957674032638863   T   T   T
  0.2777054336244966  0.0556016451968352  0.1957953420676906   T   T   T
  0.2777190960361856  0.2221991415120851  0.1959787894448264   T   T   T
  0.1108631366674734  0.5556409267789126  0.1954931462455008   T   T   T
  0.1108862598157096  0.3887334790201557  0.1953116088171989   T   T   T
  0.2777304126595385  0.3888672961878768  0.1957077497145918   T   T   T
  0.2777927860846543  0.5556076217312913  0.1955990330626577   T   T   T
  0.1110599863001369  0.8888844331023668  0.1956753105309152   T   T   T
  0.1109825436814386  0.7221970162371590  0.1957374583567703   T   T   T
  0.2776750948836412  0.7222998229093357  0.1955955910556559   T   T   T
  0.2775483304591830  0.8888985542454103  0.1956573781575091   T   T   T
  0.4441746199418371  0.2220610240386344  0.1956380409803203   T   T   T
  0.4443207518673919  0.0554786332916964  0.1956880842488692   T   T   T
  0.6110581145850467  0.0556543909157121  0.1957198356436496   T   T   T
  0.6111277203882253  0.2223371728423853  0.1956605337680329   T   T   T
  0.4447777168940614  0.5563217666253795  0.1967332191323005   T   T   T
  0.4442094084507038  0.3889068830385960  0.1958173540075384   T   T   T
  0.6111417763156790  0.3888018552571343  0.1955088697041938   T   T   T
  0.6109180854234227  0.5554083238324584  0.1957121031354208   T   T   T
  0.4441758437758782  0.8889308115832767  0.1955562344767172   T   T   T
  0.4447148732009510  0.7222310197031422  0.1962356822774836   T   T   T
  0.6104832636030388  0.7221556185688174  0.1964077009141638   T   T   T
  0.6111680651064539  0.8891683915393765  0.1955557341330974   T   T   T
  0.7778233319236927  0.2223126952232714  0.1956875112565415   T   T   T
  0.7777762069277937  0.0556398616875451  0.1957342951303291   T   T   T
  0.9443320664112402  0.0555219555149819  0.1957819542133964   T   T   T
  0.9443995772110844  0.2222106252957227  0.1957408640314037   T   T   T
  0.7777329491841952  0.5555623888420428  0.1956052770583874   T   T   T
  0.7777846384906650  0.3889688394024743  0.1957718762425345   T   T   T
  0.9444407164066098  0.3889460398451350  0.1958101617132360   T   T   T
  0.9443259589654655  0.5555762746885928  0.1958624227907442   T   T   T
  0.7777615798640397  0.8889049122468399  0.1955399533244176   T   T   T
  0.7777256433962620  0.7222626147533527  0.1955188766425783   T   T   T
  0.9443376005559351  0.7221918535958594  0.1956745477280045   T   T   T
  0.9444765666429364  0.8889183526097586  0.1956526963093325   T   T   T
 -0.0000902204248098 -0.0000155181182051  0.2940338938421603   T   T   T
 -0.0000443568045889  0.1667533120186576  0.2941407655047590   T   T   T
  0.1664376223283193  0.1666683762192053  0.2940947692489910   T   T   T
  0.1665412984641003 -0.0000554975049874  0.2938767611602633   T   T   T
 -0.0000464630390044  0.3333446625684203  0.2940936062638087   T   T   T
 -0.0000179753195593  0.5001041513955764  0.2942428924581543   T   T   T
  0.1660218458272827  0.4997864263091697  0.2929931951968885   T   T   T
  0.1660404704228978  0.3328727594501431  0.2934296637828647   T   T   T
 -0.0000969293459489  0.6667250123860874  0.2941000659797795   T   T   T
 -0.0001949399452871  0.8332297681099712  0.2938739406557892   T   T   T
  0.1665403506959979  0.8332835390006379  0.2939208467515023   T   T   T
  0.1665893192731139  0.6666116107300044  0.2942193735124481   T   T   T
  0.3332169920768596  0.0000113508449790  0.2940266256731511   T   T   T
  0.3333030949863985  0.1665950796359133  0.2943452814425975   T   T   T
  0.5000099923345604  0.1666487146201567  0.2936938508436843   T   T   T
  0.4999671774703241  0.0004330145374027  0.2941179183544251   T   T   T
  0.3330456826706165  0.3330893897322419  0.2943306539762207   T   T   T
  0.3330656279227459  0.4995737864727974  0.2933558422319250   T   T   T
  0.5001354779521940  0.4995815561360415  0.2940452078498093   T   T   T
  0.5000961354733646  0.3330655357972362  0.2933049068450664   T   T   T
  0.3330464369645510  0.6672527214851899  0.2933547521546534   T   T   T
  0.3331602907409328  0.8335685022123616  0.2939443564500573   T   T   T
  0.5004532403243312  0.8350762286458870  0.2933786708022114   T   T   T
  0.5002756527289698  0.6680653237602623  0.2969583797322795   T   T   T
  0.6669269157800324  0.0006180625276435  0.2941197047648473   T   T   T
  0.6667481732486490  0.1669325251424169  0.2939004090654768   T   T   T
  0.8333913084673367  0.1668966482321724  0.2939748257223075   T   T   T
  0.8334882758831418  0.0002971082113217  0.2940827900881064   T   T   T
  0.6666983894211530  0.3334743684445115  0.2940767717035914   T   T   T
  0.6668379622703957  0.4998869778751405  0.2937416277224562   T   T   T
  0.8332616820308346  0.5001163116602797  0.2941694231564407   T   T   T
  0.8333108805857165  0.3334682934073352  0.2939694331009067   T   T   T
  0.6667213923438240  0.6667047227628315  0.2932345571428892   T   T   T
  0.6673280998397758  0.8345540293810184  0.2936200794374501   T   T   T
  0.8333162619772509  0.8334926521595563  0.2937197797244253   T   T   T
  0.8331613459780914  0.6665719999210944  0.2940064758527187   T   T   T
  0.4167540962688079  0.2933735943852843  0.4499357679926448   T   T   T
  0.5834596674914920  0.3332208607041546  0.4605615574984094   T   T   T
  0.6819437343770451  0.6760806102628204  0.4500151248608139   T   T   T
  0.5690314615579315  0.6268085583053156  0.4393922557084143   T   T   T
  0.5226353206034353  0.6857563074430922  0.4297028957442783   T   T   T
  0.4167020248217898  0.6428146488349358  0.4248603709879151   T   T   T
  0.3531994501831078  0.5361252419893719  0.4308476720240721   T   T   T
  0.3984326755113767  0.4746036939196108  0.4361945419301022   T   T   T
  0.5047425634251286  0.5191950065020378  0.4413883423571230   T   T   T
  0.5077798165710228  0.3563150636544358  0.4529795999813083   T   T   T
  0.5481593858030090  0.2254810782931481  0.4647937054740564   T   T   T
  0.5519945416933270  0.4608911387115169  0.4497090302400397   T   T   T
  0.2486068790073356  0.4928293690835971  0.4342188193978889   T   T   T
  0.5708813857271939  0.7686013269698295  0.4281860793441584   T   T   T
  0.3831036606622966  0.6917934838737048  0.4214381896955015   T   T   T
  0.3508864615195827  0.3922146462244006  0.4399093481345062   T   T   T
  0.6294274360285276  0.4994563657259199  0.4507533309051606   T   T   T
  0.2182542618372163  0.5344122005147791  0.4164791215083773   T   T   T
  0.2059271133438385  0.4171062204406144  0.4243186242048805   T   T   T
  0.6993000489364201  0.6560813821381435  0.4967236752748678   T   T   T
  0.7179529181118770  0.7594085362120041  0.4474665325333227   T   T   T
  0.7198681656646591  0.6532663990748669  0.4140034033900556   T   T   T
  0.6174324872468218  0.2198543890239792  0.4669063996571982   T   T   T
  0.5013977009685850  0.1932087505512822  0.5073907857445369   T   T   T
  0.5027814249424826  0.1855696725792376  0.4228123168747568   T   T   T
 
  0.00000000E+00  0.00000000E+00  0.00000000E+00
  0.00000000E+00  0.00000000E+00  0.00000000E+00
  0.00000000E+00  0.00000000E+00  0.00000000E+00
  0.00000000E+00  0.00000000E+00  0.00000000E+00
  0.00000000E+00  0.00000000E+00  0.00000000E+00
  0.00000000E+00  0.00000000E+00  0.00000000E+00
  0.00000000E+00  0.00000000E+00  0.00000000E+00
  0.00000000E+00  0.00000000E+00  0.00000000E+00
  0.00000000E+00  0.00000000E+00  0.00000000E+00
  0.00000000E+00  0.00000000E+00  0.00000000E+00
  0.00000000E+00  0.00000000E+00  0.00000000E+00
  0.00000000E+00  0.00000000E+00  0.00000000E+00
  0.00000000E+00  0.00000000E+00  0.00000000E+00
  0.00000000E+00  0.00000000E+00  0.00000000E+00
  0.00000000E+00  0.00000000E+00  0.00000000E+00
  0.00000000E+00  0.00000000E+00  0.00000000E+00
  0.00000000E+00  0.00000000E+00  0.00000000E+00
  0.00000000E+00  0.00000000E+00  0.00000000E+00
  0.00000000E+00  0.00000000E+00  0.00000000E+00
  0.00000000E+00  0.00000000E+00  0.00000000E+00
  0.00000000E+00  0.00000000E+00  0.00000000E+00
  0.00000000E+00  0.00000000E+00  0.00000000E+00
  0.00000000E+00  0.00000000E+00  0.00000000E+00
  0.00000000E+00  0.00000000E+00  0.00000000E+00
  0.00000000E+00  0.00000000E+00  0.00000000E+00
  0.00000000E+00  0.00000000E+00  0.00000000E+00
  0.00000000E+00  0.00000000E+00  0.00000000E+00
  0.00000000E+00  0.00000000E+00  0.00000000E+00
  0.00000000E+00  0.00000000E+00  0.00000000E+00
  0.00000000E+00  0.00000000E+00  0.00000000E+00
  0.00000000E+00  0.00000000E+00  0.00000000E+00
  0.00000000E+00  0.00000000E+00  0.00000000E+00
  0.00000000E+00  0.00000000E+00  0.00000000E+00
  0.00000000E+00  0.00000000E+00  0.00000000E+00
  0.00000000E+00  0.00000000E+00  0.00000000E+00
  0.00000000E+00  0.00000000E+00  0.00000000E+00
  0.00000000E+00  0.00000000E+00  0.00000000E+00
  0.00000000E+00  0.00000000E+00  0.00000000E+00
  0.00000000E+00  0.00000000E+00  0.00000000E+00
  0.00000000E+00  0.00000000E+00  0.00000000E+00
  0.00000000E+00  0.00000000E+00  0.00000000E+00
  0.00000000E+00  0.00000000E+00  0.00000000E+00
  0.00000000E+00  0.00000000E+00  0.00000000E+00
  0.00000000E+00  0.00000000E+00  0.00000000E+00
  0.00000000E+00  0.00000000E+00  0.00000000E+00
  0.00000000E+00  0.00000000E+00  0.00000000E+00
  0.00000000E+00  0.00000000E+00  0.00000000E+00
  0.00000000E+00  0.00000000E+00  0.00000000E+00
  0.00000000E+00  0.00000000E+00  0.00000000E+00
  0.00000000E+00  0.00000000E+00  0.00000000E+00
  0.00000000E+00  0.00000000E+00  0.00000000E+00
  0.00000000E+00  0.00000000E+00  0.00000000E+00
  0.00000000E+00  0.00000000E+00  0.00000000E+00
  0.00000000E+00  0.00000000E+00  0.00000000E+00
  0.00000000E+00  0.00000000E+00  0.00000000E+00
  0.00000000E+00  0.00000000E+00  0.00000000E+00
  0.00000000E+00  0.00000000E+00  0.00000000E+00
  0.00000000E+00  0.00000000E+00  0.00000000E+00
  0.00000000E+00  0.00000000E+00  0.00000000E+00
  0.00000000E+00  0.00000000E+00  0.00000000E+00
  0.00000000E+00  0.00000000E+00  0.00000000E+00
  0.00000000E+00  0.00000000E+00  0.00000000E+00
  0.00000000E+00  0.00000000E+00  0.00000000E+00
  0.00000000E+00  0.00000000E+00  0.00000000E+00
  0.00000000E+00  0.00000000E+00  0.00000000E+00
  0.00000000E+00  0.00000000E+00  0.00000000E+00
  0.00000000E+00  0.00000000E+00  0.00000000E+00
  0.00000000E+00  0.00000000E+00  0.00000000E+00
  0.00000000E+00  0.00000000E+00  0.00000000E+00
  0.00000000E+00  0.00000000E+00  0.00000000E+00
  0.00000000E+00  0.00000000E+00  0.00000000E+00
  0.00000000E+00  0.00000000E+00  0.00000000E+00
  0.00000000E+00  0.00000000E+00  0.00000000E+00
  0.00000000E+00  0.00000000E+00  0.00000000E+00
  0.00000000E+00  0.00000000E+00  0.00000000E+00
  0.00000000E+00  0.00000000E+00  0.00000000E+00
  0.00000000E+00  0.00000000E+00  0.00000000E+00
  0.00000000E+00  0.00000000E+00  0.00000000E+00
  0.00000000E+00  0.00000000E+00  0.00000000E+00
  0.00000000E+00  0.00000000E+00  0.00000000E+00
  0.00000000E+00  0.00000000E+00  0.00000000E+00
  0.00000000E+00  0.00000000E+00  0.00000000E+00
  0.00000000E+00  0.00000000E+00  0.00000000E+00
  0.00000000E+00  0.00000000E+00  0.00000000E+00
  0.00000000E+00  0.00000000E+00  0.00000000E+00
  0.00000000E+00  0.00000000E+00  0.00000000E+00
  0.00000000E+00  0.00000000E+00  0.00000000E+00
  0.00000000E+00  0.00000000E+00  0.00000000E+00
  0.00000000E+00  0.00000000E+00  0.00000000E+00
  0.00000000E+00  0.00000000E+00  0.00000000E+00
  0.00000000E+00  0.00000000E+00  0.00000000E+00
  0.00000000E+00  0.00000000E+00  0.00000000E+00
  0.00000000E+00  0.00000000E+00  0.00000000E+00
  0.00000000E+00  0.00000000E+00  0.00000000E+00
  0.00000000E+00  0.00000000E+00  0.00000000E+00
  0.00000000E+00  0.00000000E+00  0.00000000E+00
  0.00000000E+00  0.00000000E+00  0.00000000E+00
  0.00000000E+00  0.00000000E+00  0.00000000E+00
  0.00000000E+00  0.00000000E+00  0.00000000E+00
  0.00000000E+00  0.00000000E+00  0.00000000E+00
  0.00000000E+00  0.00000000E+00  0.00000000E+00
  0.00000000E+00  0.00000000E+00  0.00000000E+00
  0.00000000E+00  0.00000000E+00  0.00000000E+00
  0.00000000E+00  0.00000000E+00  0.00000000E+00
  0.00000000E+00  0.00000000E+00  0.00000000E+00
  0.00000000E+00  0.00000000E+00  0.00000000E+00
  0.00000000E+00  0.00000000E+00  0.00000000E+00
  0.00000000E+00  0.00000000E+00  0.00000000E+00
  0.00000000E+00  0.00000000E+00  0.00000000E+00
  0.00000000E+00  0.00000000E+00  0.00000000E+00
  0.00000000E+00  0.00000000E+00  0.00000000E+00
  0.00000000E+00  0.00000000E+00  0.00000000E+00
  0.00000000E+00  0.00000000E+00  0.00000000E+00
  0.00000000E+00  0.00000000E+00  0.00000000E+00
  0.00000000E+00  0.00000000E+00  0.00000000E+00
  0.00000000E+00  0.00000000E+00  0.00000000E+00
  0.00000000E+00  0.00000000E+00  0.00000000E+00
  0.00000000E+00  0.00000000E+00  0.00000000E+00
  0.00000000E+00  0.00000000E+00  0.00000000E+00
  0.00000000E+00  0.00000000E+00  0.00000000E+00
  0.00000000E+00  0.00000000E+00  0.00000000E+00
  0.00000000E+00  0.00000000E+00  0.00000000E+00
  0.00000000E+00  0.00000000E+00  0.00000000E+00
  0.00000000E+00  0.00000000E+00  0.00000000E+00
  0.00000000E+00  0.00000000E+00  0.00000000E+00
  0.00000000E+00  0.00000000E+00  0.00000000E+00
  0.00000000E+00  0.00000000E+00  0.00000000E+00
  0.00000000E+00  0.00000000E+00  0.00000000E+00
  0.00000000E+00  0.00000000E+00  0.00000000E+00
  0.00000000E+00  0.00000000E+00  0.00000000E+00
  0.00000000E+00  0.00000000E+00  0.00000000E+00
  0.00000000E+00  0.00000000E+00  0.00000000E+00
  0.00000000E+00  0.00000000E+00  0.00000000E+00
  0.00000000E+00  0.00000000E+00  0.00000000E+00
  0.00000000E+00  0.00000000E+00  0.00000000E+00
  0.00000000E+00  0.00000000E+00  0.00000000E+00
  0.00000000E+00  0.00000000E+00  0.00000000E+00
  0.00000000E+00  0.00000000E+00  0.00000000E+00
  0.00000000E+00  0.00000000E+00  0.00000000E+00
  0.00000000E+00  0.00000000E+00  0.00000000E+00
  0.00000000E+00  0.00000000E+00  0.00000000E+00
  0.00000000E+00  0.00000000E+00  0.00000000E+00
  0.00000000E+00  0.00000000E+00  0.00000000E+00
  0.00000000E+00  0.00000000E+00  0.00000000E+00
  0.00000000E+00  0.00000000E+00  0.00000000E+00
  0.00000000E+00  0.00000000E+00  0.00000000E+00
  0.00000000E+00  0.00000000E+00  0.00000000E+00
  0.00000000E+00  0.00000000E+00  0.00000000E+00
  0.00000000E+00  0.00000000E+00  0.00000000E+00
  0.00000000E+00  0.00000000E+00  0.00000000E+00
  0.00000000E+00  0.00000000E+00  0.00000000E+00
  0.00000000E+00  0.00000000E+00  0.00000000E+00
  0.00000000E+00  0.00000000E+00  0.00000000E+00
  0.00000000E+00  0.00000000E+00  0.00000000E+00
  0.00000000E+00  0.00000000E+00  0.00000000E+00
  0.00000000E+00  0.00000000E+00  0.00000000E+00
  0.00000000E+00  0.00000000E+00  0.00000000E+00
  0.00000000E+00  0.00000000E+00  0.00000000E+00
  0.00000000E+00  0.00000000E+00  0.00000000E+00
  0.00000000E+00  0.00000000E+00  0.00000000E+00
  0.00000000E+00  0.00000000E+00  0.00000000E+00
  0.00000000E+00  0.00000000E+00  0.00000000E+00
  0.00000000E+00  0.00000000E+00  0.00000000E+00
  0.00000000E+00  0.00000000E+00  0.00000000E+00
  0.00000000E+00  0.00000000E+00  0.00000000E+00
  0.00000000E+00  0.00000000E+00  0.00000000E+00
  0.00000000E+00  0.00000000E+00  0.00000000E+00
  0.00000000E+00  0.00000000E+00  0.00000000E+00
  0.00000000E+00  0.00000000E+00  0.00000000E+00
