Ru  H  C                                
   1.00000000000000     
    18.7899500611000008    0.0000000000000000    0.0000000000000000
     9.3949750305999995   16.2725740887999990    0.0000000000000000
     0.0000000000000000    0.0000000000000000   20.0000000000000000
   Ru   H    C 
   192    32    15
Selective dynamics
Direct
  0.0000000000019114  0.0833333333312822  0.0000000000000000   F   F   F
  0.1666666666657761  0.0000000000000000  0.0000000000000000   F   F   F
  0.0833333333309767  0.1666666666687178  0.0000000000000000   F   F   F
  0.2500000000032401  0.0833333333312822  0.0000000000000000   F   F   F
  0.4166666666671119  0.0000000000000000  0.0000000000000000   F   F   F
  0.3333333333323125  0.1666666666687178  0.0000000000000000   F   F   F
  0.9999999999992468  0.3333333333312822  0.0000000000000000   F   F   F
  0.1666666666684407  0.2500000000000000  0.0000000000000000   F   F   F
  0.0833333333336412  0.4166666666687178  0.0000000000000000   F   F   F
  0.2500000000005826  0.3333333333312822  0.0000000000000000   F   F   F
  0.4166666666697694  0.2500000000000000  0.0000000000000000   F   F   F
  0.3333333333349700  0.4166666666687178  0.0000000000000000   F   F   F
  0.0000000000000000  0.0000000000000000  0.1071978058550016   F   F   F
  0.0833333333321420  0.0833333333312822  0.1071978058550016   F   F   F
  0.1666666666665293  0.1666666666687178  0.1071978058550016   F   F   F
  0.2500000000013287  0.0000000000000000  0.1071978058550016   F   F   F
  0.3333333333334707  0.0833333333312822  0.1071978058550016   F   F   F
  0.4166666666678580  0.1666666666687178  0.1071978058550016   F   F   F
  0.9999999999973355  0.2500000000000000  0.1071978058550016   F   F   F
  0.0833333333347994  0.3333333333312822  0.1071978058550016   F   F   F
  0.1666666666638719  0.4166666666687178  0.1071978058550016   F   F   F
  0.2499999999986713  0.2500000000000000  0.1071978058550016   F   F   F
  0.3333333333361281  0.3333333333312822  0.1071978058550016   F   F   F
  0.4166666666652006  0.4166666666687178  0.1071978058550016   F   F   F
  0.0000297343029433  0.0833111031026347  0.2135324178419300   T   T   T
  0.1666511041622847 -0.0000177994667555  0.2135203983068331   T   T   T
  0.0832828322428092  0.1666966303576491  0.2135665564356455   T   T   T
  0.2499903665806523  0.0832622572530588  0.2135962134479766   T   T   T
  0.4166184229745649 -0.0000499898886408  0.2134724344421238   T   T   T
  0.3333364705474812  0.1666619317327123  0.2134021775249945   T   T   T
 -0.0000114141612138  0.3333114331710199  0.2134508053688220   T   T   T
  0.1667076858249551  0.2499328359265332  0.2135523695965439   T   T   T
  0.0835069964916507  0.4166492303201596  0.2136484730049975   T   T   T
  0.2499319289491550  0.3332877265265278  0.2135320155531695   T   T   T
  0.4167737699160635  0.2498962818393448  0.2137626247837229   T   T   T
  0.3334980434698807  0.4166400542556425  0.2136882250911168   T   T   T
  0.0000886989866028 -0.0000475714986352  0.3163991262484487   T   T   T
  0.0833689323781580  0.0832686939756227  0.3164935533241422   T   T   T
  0.1666508117400133  0.1666806616433618  0.3165707902160030   T   T   T
  0.2498631838439259  0.0000763677061755  0.3166227914747704   T   T   T
  0.3333277168117166  0.0833382236690622  0.3165141959174628   T   T   T
  0.4167857177573406  0.1663471193681846  0.3163799652056108   T   T   T
  0.0001130943376370  0.2499111317100481  0.3166043423874589   T   T   T
  0.0833497818918588  0.3333393659546954  0.3165074373371642   T   T   T
  0.1660407463140494  0.4169253046320336  0.3164097114719402   T   T   T
  0.2497564368060517  0.2494635468292624  0.3164222033056701   T   T   T
  0.3335678918876028  0.3327827500820010  0.3170181200900485   T   T   T
  0.4162340756928848  0.4162359832093552  0.3161915584588721   T   T   T
  0.0000000000019114  0.5833333333312822  0.0000000000000000   F   F   F
  0.1666666666657761  0.5000000000000000  0.0000000000000000   F   F   F
  0.0833333333309767  0.6666666666687178  0.0000000000000000   F   F   F
  0.2500000000032401  0.5833333333312822  0.0000000000000000   F   F   F
  0.4166666666671119  0.5000000000000000  0.0000000000000000   F   F   F
  0.3333333333323054  0.6666666666687178  0.0000000000000000   F   F   F
  0.9999999999992468  0.8333333333312822  0.0000000000000000   F   F   F
  0.1666666666684407  0.7500000000000000  0.0000000000000000   F   F   F
  0.0833333333336412  0.9166666666687178  0.0000000000000000   F   F   F
  0.2500000000005826  0.8333333333312822  0.0000000000000000   F   F   F
  0.4166666666644474  0.7500000000000000  0.0000000000000000   F   F   F
  0.3333333333296480  0.9166666666687178  0.0000000000000000   F   F   F
  0.0000000000000000  0.5000000000000000  0.1071978058550016   F   F   F
  0.0833333333321420  0.5833333333312822  0.1071978058550016   F   F   F
  0.1666666666665293  0.6666666666687178  0.1071978058550016   F   F   F
  0.2500000000013287  0.5000000000000000  0.1071978058550016   F   F   F
  0.3333333333334707  0.5833333333312822  0.1071978058550016   F   F   F
  0.4166666666678580  0.6666666666687178  0.1071978058550016   F   F   F
  0.9999999999973355  0.7500000000000000  0.1071978058550016   F   F   F
  0.0833333333347994  0.8333333333312822  0.1071978058550016   F   F   F
  0.1666666666638719  0.9166666666687178  0.1071978058550016   F   F   F
  0.2499999999986713  0.7500000000000000  0.1071978058550016   F   F   F
  0.3333333333361281  0.8333333333312822  0.1071978058550016   F   F   F
  0.4166666666652006  0.9166666666687178  0.1071978058550016   F   F   F
 -0.0000090148636231  0.5834134507068474  0.2134786702385962   T   T   T
  0.1666746084847899  0.4999641328187427  0.2134747252563264   T   T   T
  0.0832942236971002  0.6666874118746504  0.2135799601431437   T   T   T
  0.2500444982116203  0.5833143500974678  0.2136800056208528   T   T   T
  0.4166466959846177  0.4998717347366853  0.2136603265567890   T   T   T
  0.3334186707436559  0.6665418522398388  0.2134172135422743   T   T   T
  0.0000133308245877  0.8333357312182816  0.2135597573475106   T   T   T
  0.1666873849777001  0.7499877965970564  0.2135877300931265   T   T   T
  0.0834024145954190  0.9166169757946112  0.2134933710842730   T   T   T
  0.2500071611675985  0.8332853329153251  0.2136171680579978   T   T   T
  0.4166380002660345  0.7499868420799231  0.2135926794598343   T   T   T
  0.3333240166148045  0.9167075824628750  0.2136049277624422   T   T   T
 -0.0000044325187751  0.5000102667801086  0.3164508482979266   T   T   T
  0.0832492951814640  0.5833697730402481  0.3164860430532347   T   T   T
  0.1664803335103258  0.6667926147838438  0.3165232404601557   T   T   T
  0.2496786127636744  0.5007623642281852  0.3165483148066079   T   T   T
  0.3332052187593034  0.5835130333630244  0.3165605674912413   T   T   T
  0.4164802556194084  0.6671473992240229  0.3165033075941812   T   T   T
  0.0000104939662428  0.7501061651065257  0.3166698551128208   T   T   T
  0.0833348534002963  0.8333250257883620  0.3165183096297453   T   T   T
  0.1666419586212781  0.9166720687272046  0.3165062542601658   T   T   T
  0.2500051337000391  0.7499524436400165  0.3166485758868720   T   T   T
  0.3333119019329613  0.8333821461738141  0.3165314361167914   T   T   T
  0.4167426376693978  0.9166431069117950  0.3165124902007565   T   T   T
  0.5000000000045688  0.0833333333312822  0.0000000000000000   F   F   F
  0.6666666666684407  0.0000000000000000  0.0000000000000000   F   F   F
  0.5833333333336412  0.1666666666687178  0.0000000000000000   F   F   F
  0.7500000000005826  0.0833333333312822  0.0000000000000000   F   F   F
  0.9166666666697694  0.0000000000000000  0.0000000000000000   F   F   F
  0.8333333333349700  0.1666666666687178  0.0000000000000000   F   F   F
  0.5000000000019114  0.3333333333312822  0.0000000000000000   F   F   F
  0.6666666666657761  0.2500000000000000  0.0000000000000000   F   F   F
  0.5833333333309767  0.4166666666687178  0.0000000000000000   F   F   F
  0.7500000000032401  0.3333333333312822  0.0000000000000000   F   F   F
  0.9166666666671119  0.2500000000000000  0.0000000000000000   F   F   F
  0.8333333333323054  0.4166666666687178  0.0000000000000000   F   F   F
  0.5000000000026574  0.0000000000000000  0.1071978058550016   F   F   F
  0.5833333333347994  0.0833333333312822  0.1071978058550016   F   F   F
  0.6666666666691938  0.1666666666687178  0.1071978058550016   F   F   F
  0.7500000000039933  0.0000000000000000  0.1071978058550016   F   F   F
  0.8333333333361281  0.0833333333312822  0.1071978058550016   F   F   F
  0.9166666666652006  0.1666666666687178  0.1071978058550016   F   F   F
  0.5000000000000000  0.2500000000000000  0.1071978058550016   F   F   F
  0.5833333333374640  0.3333333333312822  0.1071978058550016   F   F   F
  0.6666666666665293  0.4166666666687178  0.1071978058550016   F   F   F
  0.7500000000013287  0.2500000000000000  0.1071978058550016   F   F   F
  0.8333333333334707  0.3333333333312822  0.1071978058550016   F   F   F
  0.9166666666678580  0.4166666666687178  0.1071978058550016   F   F   F
  0.4999271932334220  0.0833718355574341  0.2134925917690846   T   T   T
  0.6667170878291113 -0.0000983102424567  0.2134799352828511   T   T   T
  0.5832779386209864  0.1667019957775049  0.2134876977051654   T   T   T
  0.7499827508001160  0.0833292934176688  0.2135889282650320   T   T   T
  0.9167011175689951 -0.0000714905160868  0.2134294775249062   T   T   T
  0.8333920074806956  0.1667027509612616  0.2135008705022846   T   T   T
  0.4999404800234025  0.3334051924532718  0.2136244881564443   T   T   T
  0.6667411253542991  0.2499265631750932  0.2138024500610760   T   T   T
  0.5835367258847274  0.4166140683883036  0.2136212408286707   T   T   T
  0.7499169160255734  0.3333964738913648  0.2136282177959661   T   T   T
  0.9167495195418470  0.2499706966554697  0.2135582603747629   T   T   T
  0.8333237471341907  0.4167677070641044  0.2136685027729672   T   T   T
  0.4998688706066988 -0.0000259186856930  0.3163674087248798   T   T   T
  0.5833270308565092  0.0833316877902395  0.3164768169624101   T   T   T
  0.6668358417549229  0.1661926534385364  0.3164627597384178   T   T   T
  0.7500860923177659 -0.0001051592416530  0.3165494074077692   T   T   T
  0.8333563889783946  0.0833010661831137  0.3164831884940491   T   T   T
  0.9167013235057192  0.1666815805842593  0.3164696319128940   T   T   T
  0.5001737568333900  0.2493787842067284  0.3164717013817860   T   T   T
  0.5836090864965032  0.3326118029958882  0.3169545359070816   T   T   T
  0.6677438762400812  0.4165483092805525  0.3164394438580644   T   T   T
  0.7507677095376024  0.2495332962137817  0.3164390789238595   T   T   T
  0.8332503888931891  0.3333555304974404  0.3165684152526649   T   T   T
  0.9167226261080190  0.4166586833260562  0.3164919109759007   T   T   T
  0.4999999999992468  0.5833333333312822  0.0000000000000000   F   F   F
  0.6666666666684407  0.5000000000000000  0.0000000000000000   F   F   F
  0.5833333333336412  0.6666666666687178  0.0000000000000000   F   F   F
  0.7500000000005826  0.5833333333312822  0.0000000000000000   F   F   F
  0.9166666666697694  0.5000000000000000  0.0000000000000000   F   F   F
  0.8333333333349700  0.6666666666687178  0.0000000000000000   F   F   F
  0.5000000000019114  0.8333333333312822  0.0000000000000000   F   F   F
  0.6666666666657761  0.7500000000000000  0.0000000000000000   F   F   F
  0.5833333333309767  0.9166666666687178  0.0000000000000000   F   F   F
  0.7500000000032401  0.8333333333312822  0.0000000000000000   F   F   F
  0.9166666666671119  0.7500000000000000  0.0000000000000000   F   F   F
  0.8333333333323054  0.9166666666687178  0.0000000000000000   F   F   F
  0.5000000000026574  0.5000000000000000  0.1071978058550016   F   F   F
  0.5833333333347994  0.5833333333312822  0.1071978058550016   F   F   F
  0.6666666666638719  0.6666666666687178  0.1071978058550016   F   F   F
  0.7499999999986713  0.5000000000000000  0.1071978058550016   F   F   F
  0.8333333333361281  0.5833333333312822  0.1071978058550016   F   F   F
  0.9166666666652006  0.6666666666687178  0.1071978058550016   F   F   F
  0.5000000000000000  0.7500000000000000  0.1071978058550016   F   F   F
  0.5833333333321420  0.8333333333312822  0.1071978058550016   F   F   F
  0.6666666666665293  0.9166666666687178  0.1071978058550016   F   F   F
  0.7500000000013287  0.7500000000000000  0.1071978058550016   F   F   F
  0.8333333333334707  0.8333333333312822  0.1071978058550016   F   F   F
  0.9166666666678580  0.9166666666687178  0.1071978058550016   F   F   F
  0.5000379446930935  0.5834178442290283  0.2139347878978782   T   T   T
  0.6666145939569451  0.4998632598743261  0.2133871689676286   T   T   T
  0.5833145021051680  0.6665653181197647  0.2136584377435600   T   T   T
  0.7500567821601406  0.5833799657166572  0.2134968626473538   T   T   T
  0.9165865060396271  0.5000355457747969  0.2134890292634492   T   T   T
  0.8333815443859253  0.6666278680613292  0.2135021316565558   T   T   T
  0.4999602682512843  0.8333699506282672  0.2134801681458895   T   T   T
  0.6666646839662023  0.7499526805979044  0.2137606976780910   T   T   T
  0.5834089149508037  0.9165439205751650  0.2135005400718880   T   T   T
  0.7499686269766027  0.8333138481543081  0.2135742954719528   T   T   T
  0.9166897430816563  0.7500209492559444  0.2135990826056802   T   T   T
  0.8334091781557229  0.9166608671163540  0.2135591048527206   T   T   T
  0.4997480318628394  0.5006055476106626  0.3173704357926708   T   T   T
  0.5832768413833461  0.5835918050295251  0.3164355749224212   T   T   T
  0.6667859416157143  0.6668137304172098  0.3165841049594319   T   T   T
  0.7504175643472183  0.4995319593303962  0.3166252945913872   T   T   T
  0.8335734840256278  0.5833551584382650  0.3164304158578712   T   T   T
  0.9166371286005535  0.6666498433237282  0.3164921060600644   T   T   T
  0.4997792028096795  0.7501017104365603  0.3166129485012332   T   T   T
  0.5832856351118791  0.8334456986660090  0.3164953278407873   T   T   T
  0.6666900506821842  0.9166213118141495  0.3164909736835950   T   T   T
  0.7501965962881674  0.7500310611693670  0.3166250024173428   T   T   T
  0.8333515759960207  0.8333040644324482  0.3165459125150420   T   T   T
  0.9167151474656645  0.9166767059131827  0.3165072358754985   T   T   T
  0.3212491851789006  0.3394842293314674  0.4397589250193364   T   T   T
  0.2187469746446233  0.4122991496329986  0.4605918726493773   T   T   T
  0.2723326009457714  0.4854157231099328  0.5353054800228366   T   T   T
  0.2853212147273425  0.4881792136047187  0.4479255130737624   T   T   T
  0.4301299802156541  0.3723387676668499  0.4590449190176685   T   T   T
  0.3967681952206556  0.5221687569233932  0.5424434142745801   T   T   T
  0.3748630619077009  0.5303437252443532  0.4561557112854088   T   T   T
  0.5020532371500432  0.4934270572159752  0.4268482146630901   T   T   T
  0.5321697192849119  0.4926234683749192  0.5769110818510363   T   T   T
  0.4830885351175314  0.5787888122057637  0.5237695364767988   T   T   T
  0.6284276015854622  0.4928170253102990  0.4556454775937665   T   T   T
  0.6047338300577390  0.6015294714699356  0.5774869376277466   T   T   T
  0.5529543974126432  0.6374719425559260  0.5003950672368823   T   T   T
  0.6857260606788128  0.5897461765608940  0.4417910081905115   T   T   T
  0.5921190773969283  0.7350319893378205  0.4786221897610915   T   T   T
  0.6970291442490741  0.7097817147024615  0.4825415513645970   T   T   T
  0.6436914614092444  0.7128238343158569  0.5572082818715892   T   T   T
  0.3494213169061861  0.2856493675171154  0.5560731566438235   T   T   T
  0.2558997226381970  0.2932558481405874  0.5292664283942835   T   T   T
  0.2543410809678764  0.3685883847809715  0.5842034010293994   T   T   T
  0.3854597065843099  0.4007562456452912  0.6073157579775436   T   T   T
  0.4873472357405539  0.3713384410941545  0.5837570918454035   T   T   T
  0.4473073389476381  0.3057429689074096  0.5656157091075535   T   T   T
  0.5823771284107029  0.3420424564483029  0.5195592914051221   T   T   T
  0.6276192718470275  0.3689338696471505  0.4533640742666750   T   T   T
  0.5491539140083839  0.3441225488650514  0.4363192965242573   T   T   T
  0.6821776611679401  0.4540531856893436  0.6025400820448468   T   T   T
  0.7459502756183469  0.4165471754866935  0.5304894346603741   T   T   T
  0.6772382686019874  0.3808213383591312  0.5495732679148667   T   T   T
  0.7584767620526911  0.5562894944996755  0.5836463159316013   T   T   T
  0.8045838390884009  0.5761655401145547  0.5136719584873697   T   T   T
  0.7937125036130075  0.4878427752246683  0.5141399673169236   T   T   T
  0.2820082624750233  0.3812125185855314  0.4807088038546621   T   T   T
  0.3065149434552556  0.4466616218743757  0.4920765744162248   T   T   T
  0.2860783737796317  0.3290792478848388  0.5408947923333930   T   T   T
  0.3987442946528225  0.4155913785958223  0.5008696799958051   T   T   T
  0.4157690076762810  0.4873832983490848  0.4950252854265901   T   T   T
  0.4319430526777526  0.3702733644611843  0.5678252034202841   T   T   T
  0.5051175132548064  0.4665147346375869  0.4784552520657629   T   T   T
  0.5319421948059291  0.5137174315114823  0.5252155819728340   T   T   T
  0.5694593976418559  0.3757465087729304  0.4720577153860321   T   T   T
  0.6160076619515922  0.5063315256263636  0.5099123113635406   T   T   T
  0.6108921870579649  0.5895651281967769  0.5229587012972100   T   T   T
  0.6845056016087421  0.4352891383062608  0.5499796522297722   T   T   T
  0.6790570204079954  0.6044570781134317  0.4962904978805679   T   T   T
  0.6512932582711770  0.6958607637902557  0.5038215917965445   T   T   T
  0.7636546493470154  0.5527756864266606  0.5286866809468623   T   T   T
 
  0.00000000E+00  0.00000000E+00  0.00000000E+00
  0.00000000E+00  0.00000000E+00  0.00000000E+00
  0.00000000E+00  0.00000000E+00  0.00000000E+00
  0.00000000E+00  0.00000000E+00  0.00000000E+00
  0.00000000E+00  0.00000000E+00  0.00000000E+00
  0.00000000E+00  0.00000000E+00  0.00000000E+00
  0.00000000E+00  0.00000000E+00  0.00000000E+00
  0.00000000E+00  0.00000000E+00  0.00000000E+00
  0.00000000E+00  0.00000000E+00  0.00000000E+00
  0.00000000E+00  0.00000000E+00  0.00000000E+00
  0.00000000E+00  0.00000000E+00  0.00000000E+00
  0.00000000E+00  0.00000000E+00  0.00000000E+00
  0.00000000E+00  0.00000000E+00  0.00000000E+00
  0.00000000E+00  0.00000000E+00  0.00000000E+00
  0.00000000E+00  0.00000000E+00  0.00000000E+00
  0.00000000E+00  0.00000000E+00  0.00000000E+00
  0.00000000E+00  0.00000000E+00  0.00000000E+00
  0.00000000E+00  0.00000000E+00  0.00000000E+00
  0.00000000E+00  0.00000000E+00  0.00000000E+00
  0.00000000E+00  0.00000000E+00  0.00000000E+00
  0.00000000E+00  0.00000000E+00  0.00000000E+00
  0.00000000E+00  0.00000000E+00  0.00000000E+00
  0.00000000E+00  0.00000000E+00  0.00000000E+00
  0.00000000E+00  0.00000000E+00  0.00000000E+00
  0.00000000E+00  0.00000000E+00  0.00000000E+00
  0.00000000E+00  0.00000000E+00  0.00000000E+00
  0.00000000E+00  0.00000000E+00  0.00000000E+00
  0.00000000E+00  0.00000000E+00  0.00000000E+00
  0.00000000E+00  0.00000000E+00  0.00000000E+00
  0.00000000E+00  0.00000000E+00  0.00000000E+00
  0.00000000E+00  0.00000000E+00  0.00000000E+00
  0.00000000E+00  0.00000000E+00  0.00000000E+00
  0.00000000E+00  0.00000000E+00  0.00000000E+00
  0.00000000E+00  0.00000000E+00  0.00000000E+00
  0.00000000E+00  0.00000000E+00  0.00000000E+00
  0.00000000E+00  0.00000000E+00  0.00000000E+00
  0.00000000E+00  0.00000000E+00  0.00000000E+00
  0.00000000E+00  0.00000000E+00  0.00000000E+00
  0.00000000E+00  0.00000000E+00  0.00000000E+00
  0.00000000E+00  0.00000000E+00  0.00000000E+00
  0.00000000E+00  0.00000000E+00  0.00000000E+00
  0.00000000E+00  0.00000000E+00  0.00000000E+00
  0.00000000E+00  0.00000000E+00  0.00000000E+00
  0.00000000E+00  0.00000000E+00  0.00000000E+00
  0.00000000E+00  0.00000000E+00  0.00000000E+00
  0.00000000E+00  0.00000000E+00  0.00000000E+00
  0.00000000E+00  0.00000000E+00  0.00000000E+00
  0.00000000E+00  0.00000000E+00  0.00000000E+00
  0.00000000E+00  0.00000000E+00  0.00000000E+00
  0.00000000E+00  0.00000000E+00  0.00000000E+00
  0.00000000E+00  0.00000000E+00  0.00000000E+00
  0.00000000E+00  0.00000000E+00  0.00000000E+00
  0.00000000E+00  0.00000000E+00  0.00000000E+00
  0.00000000E+00  0.00000000E+00  0.00000000E+00
  0.00000000E+00  0.00000000E+00  0.00000000E+00
  0.00000000E+00  0.00000000E+00  0.00000000E+00
  0.00000000E+00  0.00000000E+00  0.00000000E+00
  0.00000000E+00  0.00000000E+00  0.00000000E+00
  0.00000000E+00  0.00000000E+00  0.00000000E+00
  0.00000000E+00  0.00000000E+00  0.00000000E+00
  0.00000000E+00  0.00000000E+00  0.00000000E+00
  0.00000000E+00  0.00000000E+00  0.00000000E+00
  0.00000000E+00  0.00000000E+00  0.00000000E+00
  0.00000000E+00  0.00000000E+00  0.00000000E+00
  0.00000000E+00  0.00000000E+00  0.00000000E+00
  0.00000000E+00  0.00000000E+00  0.00000000E+00
  0.00000000E+00  0.00000000E+00  0.00000000E+00
  0.00000000E+00  0.00000000E+00  0.00000000E+00
  0.00000000E+00  0.00000000E+00  0.00000000E+00
  0.00000000E+00  0.00000000E+00  0.00000000E+00
  0.00000000E+00  0.00000000E+00  0.00000000E+00
  0.00000000E+00  0.00000000E+00  0.00000000E+00
  0.00000000E+00  0.00000000E+00  0.00000000E+00
  0.00000000E+00  0.00000000E+00  0.00000000E+00
  0.00000000E+00  0.00000000E+00  0.00000000E+00
  0.00000000E+00  0.00000000E+00  0.00000000E+00
  0.00000000E+00  0.00000000E+00  0.00000000E+00
  0.00000000E+00  0.00000000E+00  0.00000000E+00
  0.00000000E+00  0.00000000E+00  0.00000000E+00
  0.00000000E+00  0.00000000E+00  0.00000000E+00
  0.00000000E+00  0.00000000E+00  0.00000000E+00
  0.00000000E+00  0.00000000E+00  0.00000000E+00
  0.00000000E+00  0.00000000E+00  0.00000000E+00
  0.00000000E+00  0.00000000E+00  0.00000000E+00
  0.00000000E+00  0.00000000E+00  0.00000000E+00
  0.00000000E+00  0.00000000E+00  0.00000000E+00
  0.00000000E+00  0.00000000E+00  0.00000000E+00
  0.00000000E+00  0.00000000E+00  0.00000000E+00
  0.00000000E+00  0.00000000E+00  0.00000000E+00
  0.00000000E+00  0.00000000E+00  0.00000000E+00
  0.00000000E+00  0.00000000E+00  0.00000000E+00
  0.00000000E+00  0.00000000E+00  0.00000000E+00
  0.00000000E+00  0.00000000E+00  0.00000000E+00
  0.00000000E+00  0.00000000E+00  0.00000000E+00
  0.00000000E+00  0.00000000E+00  0.00000000E+00
  0.00000000E+00  0.00000000E+00  0.00000000E+00
  0.00000000E+00  0.00000000E+00  0.00000000E+00
  0.00000000E+00  0.00000000E+00  0.00000000E+00
  0.00000000E+00  0.00000000E+00  0.00000000E+00
  0.00000000E+00  0.00000000E+00  0.00000000E+00
  0.00000000E+00  0.00000000E+00  0.00000000E+00
  0.00000000E+00  0.00000000E+00  0.00000000E+00
  0.00000000E+00  0.00000000E+00  0.00000000E+00
  0.00000000E+00  0.00000000E+00  0.00000000E+00
  0.00000000E+00  0.00000000E+00  0.00000000E+00
  0.00000000E+00  0.00000000E+00  0.00000000E+00
  0.00000000E+00  0.00000000E+00  0.00000000E+00
  0.00000000E+00  0.00000000E+00  0.00000000E+00
  0.00000000E+00  0.00000000E+00  0.00000000E+00
  0.00000000E+00  0.00000000E+00  0.00000000E+00
  0.00000000E+00  0.00000000E+00  0.00000000E+00
  0.00000000E+00  0.00000000E+00  0.00000000E+00
  0.00000000E+00  0.00000000E+00  0.00000000E+00
  0.00000000E+00  0.00000000E+00  0.00000000E+00
  0.00000000E+00  0.00000000E+00  0.00000000E+00
  0.00000000E+00  0.00000000E+00  0.00000000E+00
  0.00000000E+00  0.00000000E+00  0.00000000E+00
  0.00000000E+00  0.00000000E+00  0.00000000E+00
  0.00000000E+00  0.00000000E+00  0.00000000E+00
  0.00000000E+00  0.00000000E+00  0.00000000E+00
  0.00000000E+00  0.00000000E+00  0.00000000E+00
  0.00000000E+00  0.00000000E+00  0.00000000E+00
  0.00000000E+00  0.00000000E+00  0.00000000E+00
  0.00000000E+00  0.00000000E+00  0.00000000E+00
  0.00000000E+00  0.00000000E+00  0.00000000E+00
  0.00000000E+00  0.00000000E+00  0.00000000E+00
  0.00000000E+00  0.00000000E+00  0.00000000E+00
  0.00000000E+00  0.00000000E+00  0.00000000E+00
  0.00000000E+00  0.00000000E+00  0.00000000E+00
  0.00000000E+00  0.00000000E+00  0.00000000E+00
  0.00000000E+00  0.00000000E+00  0.00000000E+00
  0.00000000E+00  0.00000000E+00  0.00000000E+00
  0.00000000E+00  0.00000000E+00  0.00000000E+00
  0.00000000E+00  0.00000000E+00  0.00000000E+00
  0.00000000E+00  0.00000000E+00  0.00000000E+00
  0.00000000E+00  0.00000000E+00  0.00000000E+00
  0.00000000E+00  0.00000000E+00  0.00000000E+00
  0.00000000E+00  0.00000000E+00  0.00000000E+00
  0.00000000E+00  0.00000000E+00  0.00000000E+00
  0.00000000E+00  0.00000000E+00  0.00000000E+00
  0.00000000E+00  0.00000000E+00  0.00000000E+00
  0.00000000E+00  0.00000000E+00  0.00000000E+00
  0.00000000E+00  0.00000000E+00  0.00000000E+00
  0.00000000E+00  0.00000000E+00  0.00000000E+00
  0.00000000E+00  0.00000000E+00  0.00000000E+00
  0.00000000E+00  0.00000000E+00  0.00000000E+00
  0.00000000E+00  0.00000000E+00  0.00000000E+00
  0.00000000E+00  0.00000000E+00  0.00000000E+00
  0.00000000E+00  0.00000000E+00  0.00000000E+00
  0.00000000E+00  0.00000000E+00  0.00000000E+00
  0.00000000E+00  0.00000000E+00  0.00000000E+00
  0.00000000E+00  0.00000000E+00  0.00000000E+00
  0.00000000E+00  0.00000000E+00  0.00000000E+00
  0.00000000E+00  0.00000000E+00  0.00000000E+00
  0.00000000E+00  0.00000000E+00  0.00000000E+00
  0.00000000E+00  0.00000000E+00  0.00000000E+00
  0.00000000E+00  0.00000000E+00  0.00000000E+00
  0.00000000E+00  0.00000000E+00  0.00000000E+00
  0.00000000E+00  0.00000000E+00  0.00000000E+00
  0.00000000E+00  0.00000000E+00  0.00000000E+00
  0.00000000E+00  0.00000000E+00  0.00000000E+00
  0.00000000E+00  0.00000000E+00  0.00000000E+00
  0.00000000E+00  0.00000000E+00  0.00000000E+00
  0.00000000E+00  0.00000000E+00  0.00000000E+00
  0.00000000E+00  0.00000000E+00  0.00000000E+00
  0.00000000E+00  0.00000000E+00  0.00000000E+00
  0.00000000E+00  0.00000000E+00  0.00000000E+00
  0.00000000E+00  0.00000000E+00  0.00000000E+00
  0.00000000E+00  0.00000000E+00  0.00000000E+00
  0.00000000E+00  0.00000000E+00  0.00000000E+00
  0.00000000E+00  0.00000000E+00  0.00000000E+00
  0.00000000E+00  0.00000000E+00  0.00000000E+00
  0.00000000E+00  0.00000000E+00  0.00000000E+00
  0.00000000E+00  0.00000000E+00  0.00000000E+00
  0.00000000E+00  0.00000000E+00  0.00000000E+00
  0.00000000E+00  0.00000000E+00  0.00000000E+00
  0.00000000E+00  0.00000000E+00  0.00000000E+00
  0.00000000E+00  0.00000000E+00  0.00000000E+00
  0.00000000E+00  0.00000000E+00  0.00000000E+00
  0.00000000E+00  0.00000000E+00  0.00000000E+00
  0.00000000E+00  0.00000000E+00  0.00000000E+00
  0.00000000E+00  0.00000000E+00  0.00000000E+00
  0.00000000E+00  0.00000000E+00  0.00000000E+00
  0.00000000E+00  0.00000000E+00  0.00000000E+00
  0.00000000E+00  0.00000000E+00  0.00000000E+00
  0.00000000E+00  0.00000000E+00  0.00000000E+00
  0.00000000E+00  0.00000000E+00  0.00000000E+00
  0.00000000E+00  0.00000000E+00  0.00000000E+00
  0.00000000E+00  0.00000000E+00  0.00000000E+00
  0.00000000E+00  0.00000000E+00  0.00000000E+00
  0.00000000E+00  0.00000000E+00  0.00000000E+00
  0.00000000E+00  0.00000000E+00  0.00000000E+00
  0.00000000E+00  0.00000000E+00  0.00000000E+00
  0.00000000E+00  0.00000000E+00  0.00000000E+00
  0.00000000E+00  0.00000000E+00  0.00000000E+00
  0.00000000E+00  0.00000000E+00  0.00000000E+00
  0.00000000E+00  0.00000000E+00  0.00000000E+00
  0.00000000E+00  0.00000000E+00  0.00000000E+00
  0.00000000E+00  0.00000000E+00  0.00000000E+00
  0.00000000E+00  0.00000000E+00  0.00000000E+00
  0.00000000E+00  0.00000000E+00  0.00000000E+00
  0.00000000E+00  0.00000000E+00  0.00000000E+00
  0.00000000E+00  0.00000000E+00  0.00000000E+00
  0.00000000E+00  0.00000000E+00  0.00000000E+00
  0.00000000E+00  0.00000000E+00  0.00000000E+00
  0.00000000E+00  0.00000000E+00  0.00000000E+00
  0.00000000E+00  0.00000000E+00  0.00000000E+00
  0.00000000E+00  0.00000000E+00  0.00000000E+00
  0.00000000E+00  0.00000000E+00  0.00000000E+00
  0.00000000E+00  0.00000000E+00  0.00000000E+00
  0.00000000E+00  0.00000000E+00  0.00000000E+00
  0.00000000E+00  0.00000000E+00  0.00000000E+00
  0.00000000E+00  0.00000000E+00  0.00000000E+00
  0.00000000E+00  0.00000000E+00  0.00000000E+00
  0.00000000E+00  0.00000000E+00  0.00000000E+00
  0.00000000E+00  0.00000000E+00  0.00000000E+00
  0.00000000E+00  0.00000000E+00  0.00000000E+00
  0.00000000E+00  0.00000000E+00  0.00000000E+00
  0.00000000E+00  0.00000000E+00  0.00000000E+00
  0.00000000E+00  0.00000000E+00  0.00000000E+00
  0.00000000E+00  0.00000000E+00  0.00000000E+00
  0.00000000E+00  0.00000000E+00  0.00000000E+00
  0.00000000E+00  0.00000000E+00  0.00000000E+00
  0.00000000E+00  0.00000000E+00  0.00000000E+00
  0.00000000E+00  0.00000000E+00  0.00000000E+00
  0.00000000E+00  0.00000000E+00  0.00000000E+00
  0.00000000E+00  0.00000000E+00  0.00000000E+00
  0.00000000E+00  0.00000000E+00  0.00000000E+00
  0.00000000E+00  0.00000000E+00  0.00000000E+00
  0.00000000E+00  0.00000000E+00  0.00000000E+00
  0.00000000E+00  0.00000000E+00  0.00000000E+00
  0.00000000E+00  0.00000000E+00  0.00000000E+00
  0.00000000E+00  0.00000000E+00  0.00000000E+00
  0.00000000E+00  0.00000000E+00  0.00000000E+00
  0.00000000E+00  0.00000000E+00  0.00000000E+00
  0.00000000E+00  0.00000000E+00  0.00000000E+00
  0.00000000E+00  0.00000000E+00  0.00000000E+00
  0.00000000E+00  0.00000000E+00  0.00000000E+00
  0.00000000E+00  0.00000000E+00  0.00000000E+00
