Cu  O  C  N  H                          
   1.00000000000000     
    15.1479005814000001    0.0000000000000000    0.0000000000000000
    -7.5739502907000000   13.1184667176000005    0.0000000000000000
     0.0000000000000000    0.0000000000000000   21.1840000153000005
   Cu   O    C    N    H 
   144     4    11     2    14
Selective dynamics
Direct
  0.0000000000000000  0.0000000000000000  0.0000000000000000   F   F   F
  0.0000000000033040  0.1666666666666643  0.0000000000000000   F   F   F
  0.1666666666633674  0.1666666666666643  0.0000000000000000   F   F   F
  0.1666666666666643  0.0000000000000000  0.0000000000000000   F   F   F
  0.0000000000000000  0.3333333333333357  0.0000000000000000   F   F   F
  0.0000000000033040  0.5000000000000000  0.0000000000000000   F   F   F
  0.1666666666699683  0.5000000000000000  0.0000000000000000   F   F   F
  0.1666666666666643  0.3333333333333357  0.0000000000000000   F   F   F
  0.0000000000000000  0.6666666666666643  0.0000000000000000   F   F   F
  0.0000000000033040  0.8333333333333357  0.0000000000000000   F   F   F
  0.1666666666699683  0.8333333333333357  0.0000000000000000   F   F   F
  0.1666666666666643  0.6666666666666643  0.0000000000000000   F   F   F
  0.3333333333333357  0.0000000000000000  0.0000000000000000   F   F   F
  0.3333333333300317  0.1666666666666643  0.0000000000000000   F   F   F
  0.4999999999966960  0.1666666666666643  0.0000000000000000   F   F   F
  0.5000000000000000  0.0000000000000000  0.0000000000000000   F   F   F
  0.3333333333333357  0.3333333333333357  0.0000000000000000   F   F   F
  0.3333333333300317  0.5000000000000000  0.0000000000000000   F   F   F
  0.5000000000033040  0.5000000000000000  0.0000000000000000   F   F   F
  0.5000000000000000  0.3333333333333357  0.0000000000000000   F   F   F
  0.3333333333333357  0.6666666666666643  0.0000000000000000   F   F   F
  0.3333333333300317  0.8333333333333357  0.0000000000000000   F   F   F
  0.5000000000033040  0.8333333333333357  0.0000000000000000   F   F   F
  0.5000000000000000  0.6666666666666643  0.0000000000000000   F   F   F
  0.6666666666666643  0.0000000000000000  0.0000000000000000   F   F   F
  0.6666666666633674  0.1666666666666643  0.0000000000000000   F   F   F
  0.8333333333300317  0.1666666666666643  0.0000000000000000   F   F   F
  0.8333333333333357  0.0000000000000000  0.0000000000000000   F   F   F
  0.6666666666666643  0.3333333333333357  0.0000000000000000   F   F   F
  0.6666666666633674  0.5000000000000000  0.0000000000000000   F   F   F
  0.8333333333300317  0.5000000000000000  0.0000000000000000   F   F   F
  0.8333333333333357  0.3333333333333357  0.0000000000000000   F   F   F
  0.6666666666666643  0.6666666666666643  0.0000000000000000   F   F   F
  0.6666666666633674  0.8333333333333357  0.0000000000000000   F   F   F
  0.8333333333300317  0.8333333333333357  0.0000000000000000   F   F   F
  0.8333333333333357  0.6666666666666643  0.0000000000000000   F   F   F
  0.2222233413375676  0.1111100016699709  0.0973099989997692   F   F   F
  0.2222233413299222  0.2777766586632495  0.0973099989997692   F   F   F
  0.0555566649985550  0.2777766586632495  0.0973099989997692   F   F   F
  0.0555566649995924  0.1111100016699709  0.0973099989997692   F   F   F
  0.2222233413375676  0.4444433350033066  0.0973099989997692   F   F   F
  0.2222233413299222  0.6111099919965852  0.0973099989997692   F   F   F
  0.0555566649985550  0.6111099919965852  0.0973099989997692   F   F   F
  0.0555566649995924  0.4444433350033066  0.0973099989997692   F   F   F
  0.2222233413375676  0.7777766683366352  0.0973099989997692   F   F   F
  0.2222233413299222  0.9444433253299209  0.0973099989997692   F   F   F
  0.0555566649985550  0.9444433253299209  0.0973099989997692   F   F   F
  0.0555566649995924  0.7777766683366352  0.0973099989997692   F   F   F
  0.5555566746708962  0.1111100016699709  0.0973099989997692   F   F   F
  0.5555566746632579  0.2777766586632495  0.0973099989997692   F   F   F
  0.3888899983318836  0.2777766586632495  0.0973099989997692   F   F   F
  0.3888899983329281  0.1111100016699709  0.0973099989997692   F   F   F
  0.5555566746708962  0.4444433350033066  0.0973099989997692   F   F   F
  0.5555566746632579  0.6111099919965852  0.0973099989997692   F   F   F
  0.3888899983318836  0.6111099919965852  0.0973099989997692   F   F   F
  0.3888899983329281  0.4444433350033066  0.0973099989997692   F   F   F
  0.5555566746708962  0.7777766683366352  0.0973099989997692   F   F   F
  0.5555566746632579  0.9444433253299209  0.0973099989997692   F   F   F
  0.3888899983318836  0.9444433253299209  0.0973099989997692   F   F   F
  0.3888899983329281  0.7777766683366352  0.0973099989997692   F   F   F
  0.8888900080042319  0.1111100016699709  0.0973099989997692   F   F   F
  0.8888900079965936  0.2777766586632495  0.0973099989997692   F   F   F
  0.7222233316652193  0.2777766586632495  0.0973099989997692   F   F   F
  0.7222233316662567  0.1111100016699709  0.0973099989997692   F   F   F
  0.8888900080042319  0.4444433350033066  0.0973099989997692   F   F   F
  0.8888900079965936  0.6111099919965852  0.0973099989997692   F   F   F
  0.7222233316652193  0.6111099919965852  0.0973099989997692   F   F   F
  0.7222233316662567  0.4444433350033066  0.0973099989997692   F   F   F
  0.8888900080042319  0.7777766683366352  0.0973099989997692   F   F   F
  0.8888900079965936  0.9444433253299209  0.0973099989997692   F   F   F
  0.7222233316652193  0.9444433253299209  0.0973099989997692   F   F   F
  0.7222233316662567  0.7777766683366352  0.0973099989997692   F   F   F
  0.1108634958219009  0.2220126080068313  0.1955104042536991   T   T   T
  0.1110116161154558  0.0554160432814605  0.1956319055214480   T   T   T
  0.2775880735687418  0.0553814774854339  0.1955832873616518   T   T   T
  0.2778433689914598  0.2224530152669859  0.1961014833522034   T   T   T
  0.1109944838600503  0.5556098090967903  0.1956177531694094   T   T   T
  0.1110407933035364  0.3889274518663253  0.1954778973463310   T   T   T
  0.2777430151812095  0.3886046956678579  0.1959147181244927   T   T   T
  0.2776206028554674  0.5555850329861679  0.1954039247963066   T   T   T
  0.1110184395660639  0.8887892155853186  0.1956661315208061   T   T   T
  0.1110330531842655  0.7221750890110675  0.1957185273673630   T   T   T
  0.2776637837714332  0.7222334180664477  0.1956630579464136   T   T   T
  0.2776425593311430  0.8888449380342869  0.1956737546742963   T   T   T
  0.4443696781230321  0.2221539856830860  0.1959242779185940   T   T   T
  0.4443142178325472  0.0555423588966436  0.1958377851675768   T   T   T
  0.6109880371414268  0.0554024749890549  0.1956858838541203   T   T   T
  0.6108619460405728  0.2218963699721787  0.1956530604395627   T   T   T
  0.4446199530998408  0.5555367154498153  0.1956880898009529   T   T   T
  0.4441199576704687  0.3889736684765376  0.1967428831422393   T   T   T
  0.6107638413699541  0.3888266251024787  0.1956899698588003   T   T   T
  0.6110495355478058  0.5556055593857904  0.1959398867702500   T   T   T
  0.4442791097859498  0.8888622021277369  0.1956241292720412   T   T   T
  0.4442695496520337  0.7221820828023872  0.1954351499665823   T   T   T
  0.6113544129096360  0.7223891605821936  0.1957420760021149   T   T   T
  0.6111742574788437  0.8888478598625856  0.1956707258795561   T   T   T
  0.7776796882387375  0.2221217958054924  0.1955872930115171   T   T   T
  0.7777786571891619  0.0555405402907177  0.1956429386617808   T   T   T
  0.9443572378343039  0.0554960829599567  0.1957346991732578   T   T   T
  0.9443476138906262  0.2222084223269170  0.1956793564183380   T   T   T
  0.7778904591641017  0.5555699553745898  0.1955431651210368   T   T   T
  0.7778031653947921  0.3889549954627953  0.1954999905221929   T   T   T
  0.9445030941864733  0.3889249137814075  0.1956219858677237   T   T   T
  0.9443552306044489  0.5555072224254698  0.1957869885515856   T   T   T
  0.7777419919152367  0.8888335737144335  0.1958292628009761   T   T   T
  0.7778577968886061  0.7222054431543056  0.1957286874435041   T   T   T
  0.9443801802019521  0.7221509830424940  0.1956911727828773   T   T   T
  0.9444016456532714  0.8888287996068647  0.1957470492210815   T   T   T
 -0.0002010651258044 -0.0001423974694993  0.2940247779142887   T   T   T
 -0.0002835507891246  0.1665940055811367  0.2940077539676425   T   T   T
  0.1658773095035644  0.1661790806226492  0.2938285363369189   T   T   T
  0.1663862194618578 -0.0002516153097373  0.2939155127331884   T   T   T
 -0.0002294853324815  0.3333440270169504  0.2939579811709677   T   T   T
 -0.0000401900594641  0.4999050522446368  0.2940630973035389   T   T   T
  0.1665834732168097  0.5001027870797129  0.2937330094692291   T   T   T
  0.1657478302738386  0.3329925891018805  0.2932718984162332   T   T   T
 -0.0001370738454626  0.6665003687669766  0.2939675769103907   T   T   T
 -0.0001405492309796  0.8331172054946157  0.2939191388021306   T   T   T
  0.1665094341760750  0.8331634836943492  0.2939044830428571   T   T   T
  0.1666039366892018  0.6665476652078850  0.2940157145980158   T   T   T
  0.3330708158848955 -0.0002713572255537  0.2940510131083005   T   T   T
  0.3326545314055401  0.1658508773715533  0.2936255318982100   T   T   T
  0.4998588299106569  0.1664139443096436  0.2944410123654412   T   T   T
  0.4998483563311026 -0.0001057620911190  0.2939422049935572   T   T   T
  0.3323745001536491  0.3329606636490720  0.2956067210482231   T   T   T
  0.3331892766165546  0.5002814431273946  0.2929072292610065   T   T   T
  0.5007736604916841  0.5013529248157520  0.2947935505692436   T   T   T
  0.4993781733764958  0.3329580170475943  0.2939554794551413   T   T   T
  0.3331898963335279  0.6667051268594792  0.2938611310807463   T   T   T
  0.3331487829978846  0.8332499020210193  0.2939622413971054   T   T   T
  0.4997972652985068  0.8334372173933456  0.2934247585494723   T   T   T
  0.5000398869414586  0.6672831159961490  0.2931546480989348   T   T   T
  0.6665945137185362 -0.0000396094744798  0.2938870356060831   T   T   T
  0.6666894999114690  0.1664469079674410  0.2938177297508407   T   T   T
  0.8332369928690904  0.1666015211196437  0.2939219276628574   T   T   T
  0.8332122512530721  0.0000073842555268  0.2939726171077591   T   T   T
  0.6665966709366679  0.3330392544119679  0.2928728606430658   T   T   T
  0.6671305457038600  0.5000495169246213  0.2934557459151811   T   T   T
  0.8332675950105197  0.4998598755125377  0.2941761299668248   T   T   T
  0.8333000088446199  0.3332157094703933  0.2935023710854521   T   T   T
  0.6671866198370028  0.6671203414729410  0.2941516885489135   T   T   T
  0.6666074086020214  0.8334456184093040  0.2943277212348499   T   T   T
  0.8333811266629780  0.8333076180324481  0.2939982189680625   T   T   T
  0.8332754986542503  0.6664854284128281  0.2940730549716192   T   T   T
  0.5842793820655466  0.7304577536253324  0.4543792385421584   T   T   T
  0.4494222631240540  0.7596041132911477  0.4554786232402195   T   T   T
  0.5871857208287826  0.2689924926480958  0.4423328648508726   T   T   T
  0.7485048097128177  0.4066853051819792  0.4529892979697023   T   T   T
  0.2294469447986822  0.4097755581596266  0.4495216019119532   T   T   T
  0.3311212300536684  0.4162052476050179  0.4419933836664866   T   T   T
  0.3386892593631899  0.3282654163471686  0.4363244831011477   T   T   T
  0.4321280302570605  0.3301281901172538  0.4342227531111056   T   T   T
  0.5223333491819626  0.4249456790261258  0.4381514499202666   T   T   T
  0.5176422824414824  0.5153733849750906  0.4399985095240305   T   T   T
  0.4232217765312619  0.5114568388149997  0.4427627326848251   T   T   T
  0.4925327717841056  0.6993295783535330  0.4524045892152750   T   T   T
  0.5216582476425360  0.8673958525147935  0.4606085086974135   T   T   T
  0.6454603458200400  0.3613008969517957  0.4451318103927115   T   T   T
  0.7866038358745170  0.3366001326404330  0.4579877326300308   T   T   T
  0.4153219539551752  0.5993098316217030  0.4471628393794109   T   T   T
  0.6198453667118076  0.4364030575431615  0.4409767790405572   T   T   T
  0.2683771104467269  0.2545504405926894  0.4354551638797337   T   T   T
  0.4351447691083906  0.2600111961029465  0.4326911887359835   T   T   T
  0.5871327509449396  0.5892068083952621  0.4426946229829576   T   T   T
  0.3440669732487190  0.5897215710771270  0.4442218022055164   T   T   T
  0.6793920572907127  0.5091068158790869  0.4430382173283942   T   T   T
  0.2242037968615400  0.4425924822127753  0.4949593660427279   T   T   T
  0.1675080037747260  0.3301340304292611  0.4475290908923347   T   T   T
  0.2145665116859667  0.4508247521910848  0.4114303063415399   T   T   T
  0.4760448203747993  0.9049676988666038  0.4571942338404145   T   T   T
  0.5619983776257198  0.8840352872095184  0.5060387515664813   T   T   T
  0.5772435408638447  0.8920552935214324  0.4217210694316151   T   T   T
  0.7587491427604572  0.2916730099066149  0.5016514494115730   T   T   T
  0.7619408553341321  0.2847475395450069  0.4170643882892415   T   T   T
  0.8697862812525186  0.3846084034891286  0.4584729717856859   T   T   T
 
  0.00000000E+00  0.00000000E+00  0.00000000E+00
  0.00000000E+00  0.00000000E+00  0.00000000E+00
  0.00000000E+00  0.00000000E+00  0.00000000E+00
  0.00000000E+00  0.00000000E+00  0.00000000E+00
  0.00000000E+00  0.00000000E+00  0.00000000E+00
  0.00000000E+00  0.00000000E+00  0.00000000E+00
  0.00000000E+00  0.00000000E+00  0.00000000E+00
  0.00000000E+00  0.00000000E+00  0.00000000E+00
  0.00000000E+00  0.00000000E+00  0.00000000E+00
  0.00000000E+00  0.00000000E+00  0.00000000E+00
  0.00000000E+00  0.00000000E+00  0.00000000E+00
  0.00000000E+00  0.00000000E+00  0.00000000E+00
  0.00000000E+00  0.00000000E+00  0.00000000E+00
  0.00000000E+00  0.00000000E+00  0.00000000E+00
  0.00000000E+00  0.00000000E+00  0.00000000E+00
  0.00000000E+00  0.00000000E+00  0.00000000E+00
  0.00000000E+00  0.00000000E+00  0.00000000E+00
  0.00000000E+00  0.00000000E+00  0.00000000E+00
  0.00000000E+00  0.00000000E+00  0.00000000E+00
  0.00000000E+00  0.00000000E+00  0.00000000E+00
  0.00000000E+00  0.00000000E+00  0.00000000E+00
  0.00000000E+00  0.00000000E+00  0.00000000E+00
  0.00000000E+00  0.00000000E+00  0.00000000E+00
  0.00000000E+00  0.00000000E+00  0.00000000E+00
  0.00000000E+00  0.00000000E+00  0.00000000E+00
  0.00000000E+00  0.00000000E+00  0.00000000E+00
  0.00000000E+00  0.00000000E+00  0.00000000E+00
  0.00000000E+00  0.00000000E+00  0.00000000E+00
  0.00000000E+00  0.00000000E+00  0.00000000E+00
  0.00000000E+00  0.00000000E+00  0.00000000E+00
  0.00000000E+00  0.00000000E+00  0.00000000E+00
  0.00000000E+00  0.00000000E+00  0.00000000E+00
  0.00000000E+00  0.00000000E+00  0.00000000E+00
  0.00000000E+00  0.00000000E+00  0.00000000E+00
  0.00000000E+00  0.00000000E+00  0.00000000E+00
  0.00000000E+00  0.00000000E+00  0.00000000E+00
  0.00000000E+00  0.00000000E+00  0.00000000E+00
  0.00000000E+00  0.00000000E+00  0.00000000E+00
  0.00000000E+00  0.00000000E+00  0.00000000E+00
  0.00000000E+00  0.00000000E+00  0.00000000E+00
  0.00000000E+00  0.00000000E+00  0.00000000E+00
  0.00000000E+00  0.00000000E+00  0.00000000E+00
  0.00000000E+00  0.00000000E+00  0.00000000E+00
  0.00000000E+00  0.00000000E+00  0.00000000E+00
  0.00000000E+00  0.00000000E+00  0.00000000E+00
  0.00000000E+00  0.00000000E+00  0.00000000E+00
  0.00000000E+00  0.00000000E+00  0.00000000E+00
  0.00000000E+00  0.00000000E+00  0.00000000E+00
  0.00000000E+00  0.00000000E+00  0.00000000E+00
  0.00000000E+00  0.00000000E+00  0.00000000E+00
  0.00000000E+00  0.00000000E+00  0.00000000E+00
  0.00000000E+00  0.00000000E+00  0.00000000E+00
  0.00000000E+00  0.00000000E+00  0.00000000E+00
  0.00000000E+00  0.00000000E+00  0.00000000E+00
  0.00000000E+00  0.00000000E+00  0.00000000E+00
  0.00000000E+00  0.00000000E+00  0.00000000E+00
  0.00000000E+00  0.00000000E+00  0.00000000E+00
  0.00000000E+00  0.00000000E+00  0.00000000E+00
  0.00000000E+00  0.00000000E+00  0.00000000E+00
  0.00000000E+00  0.00000000E+00  0.00000000E+00
  0.00000000E+00  0.00000000E+00  0.00000000E+00
  0.00000000E+00  0.00000000E+00  0.00000000E+00
  0.00000000E+00  0.00000000E+00  0.00000000E+00
  0.00000000E+00  0.00000000E+00  0.00000000E+00
  0.00000000E+00  0.00000000E+00  0.00000000E+00
  0.00000000E+00  0.00000000E+00  0.00000000E+00
  0.00000000E+00  0.00000000E+00  0.00000000E+00
  0.00000000E+00  0.00000000E+00  0.00000000E+00
  0.00000000E+00  0.00000000E+00  0.00000000E+00
  0.00000000E+00  0.00000000E+00  0.00000000E+00
  0.00000000E+00  0.00000000E+00  0.00000000E+00
  0.00000000E+00  0.00000000E+00  0.00000000E+00
  0.00000000E+00  0.00000000E+00  0.00000000E+00
  0.00000000E+00  0.00000000E+00  0.00000000E+00
  0.00000000E+00  0.00000000E+00  0.00000000E+00
  0.00000000E+00  0.00000000E+00  0.00000000E+00
  0.00000000E+00  0.00000000E+00  0.00000000E+00
  0.00000000E+00  0.00000000E+00  0.00000000E+00
  0.00000000E+00  0.00000000E+00  0.00000000E+00
  0.00000000E+00  0.00000000E+00  0.00000000E+00
  0.00000000E+00  0.00000000E+00  0.00000000E+00
  0.00000000E+00  0.00000000E+00  0.00000000E+00
  0.00000000E+00  0.00000000E+00  0.00000000E+00
  0.00000000E+00  0.00000000E+00  0.00000000E+00
  0.00000000E+00  0.00000000E+00  0.00000000E+00
  0.00000000E+00  0.00000000E+00  0.00000000E+00
  0.00000000E+00  0.00000000E+00  0.00000000E+00
  0.00000000E+00  0.00000000E+00  0.00000000E+00
  0.00000000E+00  0.00000000E+00  0.00000000E+00
  0.00000000E+00  0.00000000E+00  0.00000000E+00
  0.00000000E+00  0.00000000E+00  0.00000000E+00
  0.00000000E+00  0.00000000E+00  0.00000000E+00
  0.00000000E+00  0.00000000E+00  0.00000000E+00
  0.00000000E+00  0.00000000E+00  0.00000000E+00
  0.00000000E+00  0.00000000E+00  0.00000000E+00
  0.00000000E+00  0.00000000E+00  0.00000000E+00
  0.00000000E+00  0.00000000E+00  0.00000000E+00
  0.00000000E+00  0.00000000E+00  0.00000000E+00
  0.00000000E+00  0.00000000E+00  0.00000000E+00
  0.00000000E+00  0.00000000E+00  0.00000000E+00
  0.00000000E+00  0.00000000E+00  0.00000000E+00
  0.00000000E+00  0.00000000E+00  0.00000000E+00
  0.00000000E+00  0.00000000E+00  0.00000000E+00
  0.00000000E+00  0.00000000E+00  0.00000000E+00
  0.00000000E+00  0.00000000E+00  0.00000000E+00
  0.00000000E+00  0.00000000E+00  0.00000000E+00
  0.00000000E+00  0.00000000E+00  0.00000000E+00
  0.00000000E+00  0.00000000E+00  0.00000000E+00
  0.00000000E+00  0.00000000E+00  0.00000000E+00
  0.00000000E+00  0.00000000E+00  0.00000000E+00
  0.00000000E+00  0.00000000E+00  0.00000000E+00
  0.00000000E+00  0.00000000E+00  0.00000000E+00
  0.00000000E+00  0.00000000E+00  0.00000000E+00
  0.00000000E+00  0.00000000E+00  0.00000000E+00
  0.00000000E+00  0.00000000E+00  0.00000000E+00
  0.00000000E+00  0.00000000E+00  0.00000000E+00
  0.00000000E+00  0.00000000E+00  0.00000000E+00
  0.00000000E+00  0.00000000E+00  0.00000000E+00
  0.00000000E+00  0.00000000E+00  0.00000000E+00
  0.00000000E+00  0.00000000E+00  0.00000000E+00
  0.00000000E+00  0.00000000E+00  0.00000000E+00
  0.00000000E+00  0.00000000E+00  0.00000000E+00
  0.00000000E+00  0.00000000E+00  0.00000000E+00
  0.00000000E+00  0.00000000E+00  0.00000000E+00
  0.00000000E+00  0.00000000E+00  0.00000000E+00
  0.00000000E+00  0.00000000E+00  0.00000000E+00
  0.00000000E+00  0.00000000E+00  0.00000000E+00
  0.00000000E+00  0.00000000E+00  0.00000000E+00
  0.00000000E+00  0.00000000E+00  0.00000000E+00
  0.00000000E+00  0.00000000E+00  0.00000000E+00
  0.00000000E+00  0.00000000E+00  0.00000000E+00
  0.00000000E+00  0.00000000E+00  0.00000000E+00
  0.00000000E+00  0.00000000E+00  0.00000000E+00
  0.00000000E+00  0.00000000E+00  0.00000000E+00
  0.00000000E+00  0.00000000E+00  0.00000000E+00
  0.00000000E+00  0.00000000E+00  0.00000000E+00
  0.00000000E+00  0.00000000E+00  0.00000000E+00
  0.00000000E+00  0.00000000E+00  0.00000000E+00
  0.00000000E+00  0.00000000E+00  0.00000000E+00
  0.00000000E+00  0.00000000E+00  0.00000000E+00
  0.00000000E+00  0.00000000E+00  0.00000000E+00
  0.00000000E+00  0.00000000E+00  0.00000000E+00
  0.00000000E+00  0.00000000E+00  0.00000000E+00
  0.00000000E+00  0.00000000E+00  0.00000000E+00
  0.00000000E+00  0.00000000E+00  0.00000000E+00
  0.00000000E+00  0.00000000E+00  0.00000000E+00
  0.00000000E+00  0.00000000E+00  0.00000000E+00
  0.00000000E+00  0.00000000E+00  0.00000000E+00
  0.00000000E+00  0.00000000E+00  0.00000000E+00
  0.00000000E+00  0.00000000E+00  0.00000000E+00
  0.00000000E+00  0.00000000E+00  0.00000000E+00
  0.00000000E+00  0.00000000E+00  0.00000000E+00
  0.00000000E+00  0.00000000E+00  0.00000000E+00
  0.00000000E+00  0.00000000E+00  0.00000000E+00
  0.00000000E+00  0.00000000E+00  0.00000000E+00
  0.00000000E+00  0.00000000E+00  0.00000000E+00
  0.00000000E+00  0.00000000E+00  0.00000000E+00
  0.00000000E+00  0.00000000E+00  0.00000000E+00
  0.00000000E+00  0.00000000E+00  0.00000000E+00
  0.00000000E+00  0.00000000E+00  0.00000000E+00
  0.00000000E+00  0.00000000E+00  0.00000000E+00
  0.00000000E+00  0.00000000E+00  0.00000000E+00
  0.00000000E+00  0.00000000E+00  0.00000000E+00
  0.00000000E+00  0.00000000E+00  0.00000000E+00
  0.00000000E+00  0.00000000E+00  0.00000000E+00
  0.00000000E+00  0.00000000E+00  0.00000000E+00
  0.00000000E+00  0.00000000E+00  0.00000000E+00
  0.00000000E+00  0.00000000E+00  0.00000000E+00
  0.00000000E+00  0.00000000E+00  0.00000000E+00
  0.00000000E+00  0.00000000E+00  0.00000000E+00
  0.00000000E+00  0.00000000E+00  0.00000000E+00
  0.00000000E+00  0.00000000E+00  0.00000000E+00
  0.00000000E+00  0.00000000E+00  0.00000000E+00
  0.00000000E+00  0.00000000E+00  0.00000000E+00
  0.00000000E+00  0.00000000E+00  0.00000000E+00
