Ru  H  C                                
   1.00000000000000     
    18.7899500611000008    0.0000000000000000    0.0000000000000000
     9.3949750305999995   16.2725740887999990    0.0000000000000000
     0.0000000000000000    0.0000000000000000   20.0000000000000000
   Ru   H    C 
   192    32    15
Selective dynamics
Direct
  0.0000000000019114  0.0833333333312822  0.0000000000000000   F   F   F
  0.1666666666657761  0.0000000000000000  0.0000000000000000   F   F   F
  0.0833333333309767  0.1666666666687178  0.0000000000000000   F   F   F
  0.2500000000032401  0.0833333333312822  0.0000000000000000   F   F   F
  0.4166666666671119  0.0000000000000000  0.0000000000000000   F   F   F
  0.3333333333323125  0.1666666666687178  0.0000000000000000   F   F   F
  0.9999999999992468  0.3333333333312822  0.0000000000000000   F   F   F
  0.1666666666684407  0.2500000000000000  0.0000000000000000   F   F   F
  0.0833333333336412  0.4166666666687178  0.0000000000000000   F   F   F
  0.2500000000005826  0.3333333333312822  0.0000000000000000   F   F   F
  0.4166666666697694  0.2500000000000000  0.0000000000000000   F   F   F
  0.3333333333349700  0.4166666666687178  0.0000000000000000   F   F   F
  0.0000000000000000  0.0000000000000000  0.1071978058550016   F   F   F
  0.0833333333321420  0.0833333333312822  0.1071978058550016   F   F   F
  0.1666666666665293  0.1666666666687178  0.1071978058550016   F   F   F
  0.2500000000013287  0.0000000000000000  0.1071978058550016   F   F   F
  0.3333333333334707  0.0833333333312822  0.1071978058550016   F   F   F
  0.4166666666678580  0.1666666666687178  0.1071978058550016   F   F   F
  0.9999999999973355  0.2500000000000000  0.1071978058550016   F   F   F
  0.0833333333347994  0.3333333333312822  0.1071978058550016   F   F   F
  0.1666666666638719  0.4166666666687178  0.1071978058550016   F   F   F
  0.2499999999986713  0.2500000000000000  0.1071978058550016   F   F   F
  0.3333333333361281  0.3333333333312822  0.1071978058550016   F   F   F
  0.4166666666652006  0.4166666666687178  0.1071978058550016   F   F   F
  0.0000231080335009  0.0833912480072293  0.2134945836312755   T   T   T
  0.1665964253265479  0.0000694385003696  0.2135275819128842   T   T   T
  0.0832879461086946  0.1666932174468744  0.2135841572659917   T   T   T
  0.2500146022300335  0.0833035717707636  0.2135636064043923   T   T   T
  0.4165889663102401 -0.0000206499483303  0.2134476617431462   T   T   T
  0.3333560066301707  0.1666736025621795  0.2134440282210934   T   T   T
 -0.0000606232588403  0.3333790385647171  0.2135008436616722   T   T   T
  0.1667081434971288  0.2500137572352647  0.2136083582361564   T   T   T
  0.0834210206063556  0.4166121113685895  0.2134994116334653   T   T   T
  0.2499923462929168  0.3332936648994266  0.2137050018064544   T   T   T
  0.4167343800068624  0.2499304507237930  0.2136002317133530   T   T   T
  0.3333180762700526  0.4166740784695537  0.2137105030464069   T   T   T
 -0.0000918560831678  0.0000565119498959  0.3163741673442261   T   T   T
  0.0833131573067214  0.0833519197321269  0.3164993851388979   T   T   T
  0.1666640430630427  0.1666913836945318  0.3165382967806648   T   T   T
  0.2499418497246172  0.0000210700221538  0.3166221697274438   T   T   T
  0.3332970954444744  0.0834127704600217  0.3165090832217596   T   T   T
  0.4169013559587124  0.1661888180917583  0.3163767324520260   T   T   T
  0.0000038047374588  0.2499916433715664  0.3166240986640778   T   T   T
  0.0833492407336328  0.3333156019162352  0.3164875159881617   T   T   T
  0.1663617694789184  0.4167577517869243  0.3164523163747681   T   T   T
  0.2498097149915471  0.2497746920271883  0.3165361697042362   T   T   T
  0.3333356890590786  0.3333379754171155  0.3170667316054693   T   T   T
  0.4170496380451844  0.4165546208520047  0.3163249404816065   T   T   T
  0.0000000000019114  0.5833333333312822  0.0000000000000000   F   F   F
  0.1666666666657761  0.5000000000000000  0.0000000000000000   F   F   F
  0.0833333333309767  0.6666666666687178  0.0000000000000000   F   F   F
  0.2500000000032401  0.5833333333312822  0.0000000000000000   F   F   F
  0.4166666666671119  0.5000000000000000  0.0000000000000000   F   F   F
  0.3333333333323054  0.6666666666687178  0.0000000000000000   F   F   F
  0.9999999999992468  0.8333333333312822  0.0000000000000000   F   F   F
  0.1666666666684407  0.7500000000000000  0.0000000000000000   F   F   F
  0.0833333333336412  0.9166666666687178  0.0000000000000000   F   F   F
  0.2500000000005826  0.8333333333312822  0.0000000000000000   F   F   F
  0.4166666666644474  0.7500000000000000  0.0000000000000000   F   F   F
  0.3333333333296480  0.9166666666687178  0.0000000000000000   F   F   F
  0.0000000000000000  0.5000000000000000  0.1071978058550016   F   F   F
  0.0833333333321420  0.5833333333312822  0.1071978058550016   F   F   F
  0.1666666666665293  0.6666666666687178  0.1071978058550016   F   F   F
  0.2500000000013287  0.5000000000000000  0.1071978058550016   F   F   F
  0.3333333333334707  0.5833333333312822  0.1071978058550016   F   F   F
  0.4166666666678580  0.6666666666687178  0.1071978058550016   F   F   F
  0.9999999999973355  0.7500000000000000  0.1071978058550016   F   F   F
  0.0833333333347994  0.8333333333312822  0.1071978058550016   F   F   F
  0.1666666666638719  0.9166666666687178  0.1071978058550016   F   F   F
  0.2499999999986713  0.7500000000000000  0.1071978058550016   F   F   F
  0.3333333333361281  0.8333333333312822  0.1071978058550016   F   F   F
  0.4166666666652006  0.9166666666687178  0.1071978058550016   F   F   F
  0.0000055513820288  0.5833952037014102  0.2134865414578615   T   T   T
  0.1666351765028958  0.4999909444916198  0.2136045187824538   T   T   T
  0.0832865871969280  0.6666948891273979  0.2135751646531599   T   T   T
  0.2499775402913202  0.5833120745805643  0.2135713256220388   T   T   T
  0.4165927409305465  0.4999203015833618  0.2134418089265262   T   T   T
  0.3334104386257375  0.6665795494426501  0.2139354225516371   T   T   T
 -0.0000430826407303  0.8333729166408319  0.2135191406908708   T   T   T
  0.1667035501529382  0.7500026450130176  0.2135807076598947   T   T   T
  0.0833780510054439  0.9166254896781849  0.2134874865792226   T   T   T
  0.2499605016103297  0.8333332796329747  0.2134902440170777   T   T   T
  0.4166184893992073  0.7500816010264116  0.2135430020068063   T   T   T
  0.3332720905945885  0.9166888727721895  0.2135768870097018   T   T   T
 -0.0001114391714662  0.5000640770392750  0.3163800048681785   T   T   T
  0.0832989149848910  0.5833515980178379  0.3165165225971771   T   T   T
  0.1664151540891743  0.6668818723810046  0.3164593593442077   T   T   T
  0.2495597122349209  0.5001113662013452  0.3167118555903615   T   T   T
  0.3333017023838817  0.5833306015279515  0.3165977444705919   T   T   T
  0.4163929890720020  0.6666319891474617  0.3167974689092908   T   T   T
 -0.0000119074041143  0.7500586283388373  0.3166385088895833   T   T   T
  0.0832945748517127  0.8333678394647784  0.3164966113805082   T   T   T
  0.1666843291422813  0.9166652673953268  0.3165083548713869   T   T   T
  0.2496370289341875  0.7503074170615357  0.3165361970669917   T   T   T
  0.3328530501467913  0.8338572874483893  0.3164207014056972   T   T   T
  0.4166565730861015  0.9166691461295869  0.3164917834311661   T   T   T
  0.5000000000045688  0.0833333333312822  0.0000000000000000   F   F   F
  0.6666666666684407  0.0000000000000000  0.0000000000000000   F   F   F
  0.5833333333336412  0.1666666666687178  0.0000000000000000   F   F   F
  0.7500000000005826  0.0833333333312822  0.0000000000000000   F   F   F
  0.9166666666697694  0.0000000000000000  0.0000000000000000   F   F   F
  0.8333333333349700  0.1666666666687178  0.0000000000000000   F   F   F
  0.5000000000019114  0.3333333333312822  0.0000000000000000   F   F   F
  0.6666666666657761  0.2500000000000000  0.0000000000000000   F   F   F
  0.5833333333309767  0.4166666666687178  0.0000000000000000   F   F   F
  0.7500000000032401  0.3333333333312822  0.0000000000000000   F   F   F
  0.9166666666671119  0.2500000000000000  0.0000000000000000   F   F   F
  0.8333333333323054  0.4166666666687178  0.0000000000000000   F   F   F
  0.5000000000026574  0.0000000000000000  0.1071978058550016   F   F   F
  0.5833333333347994  0.0833333333312822  0.1071978058550016   F   F   F
  0.6666666666691938  0.1666666666687178  0.1071978058550016   F   F   F
  0.7500000000039933  0.0000000000000000  0.1071978058550016   F   F   F
  0.8333333333361281  0.0833333333312822  0.1071978058550016   F   F   F
  0.9166666666652006  0.1666666666687178  0.1071978058550016   F   F   F
  0.5000000000000000  0.2500000000000000  0.1071978058550016   F   F   F
  0.5833333333374640  0.3333333333312822  0.1071978058550016   F   F   F
  0.6666666666665293  0.4166666666687178  0.1071978058550016   F   F   F
  0.7500000000013287  0.2500000000000000  0.1071978058550016   F   F   F
  0.8333333333334707  0.3333333333312822  0.1071978058550016   F   F   F
  0.9166666666678580  0.4166666666687178  0.1071978058550016   F   F   F
  0.4999680464885345  0.0834116338878599  0.2135478016417667   T   T   T
  0.6666537238797003  0.0000195143397533  0.2134877625148410   T   T   T
  0.5833234931605771  0.1667019525170170  0.2136087224228256   T   T   T
  0.7500278803916544  0.0832720584038040  0.2135801006492596   T   T   T
  0.9166259921326270 -0.0000230104978073  0.2134911629051344   T   T   T
  0.8333597899292525  0.1666354962923056  0.2135182116273276   T   T   T
  0.4999078965284528  0.3334141575785827  0.2135073987311700   T   T   T
  0.6667230911023937  0.2499892546241299  0.2136038656261299   T   T   T
  0.5833975971617953  0.4166043238889950  0.2134451202854472   T   T   T
  0.7499860876499892  0.3332954752233941  0.2135453846212187   T   T   T
  0.9166937079464459  0.2500061401194499  0.2135763290774511   T   T   T
  0.8333043112986781  0.4166894699735518  0.2136350615599071   T   T   T
  0.4999202305023780  0.0000291046981620  0.3163594434275471   T   T   T
  0.5833094397683606  0.0833561241952738  0.3164901440819619   T   T   T
  0.6666572241356882  0.1666669289783532  0.3165564837877470   T   T   T
  0.7500428656966649 -0.0000313590059078  0.3166248242552169   T   T   T
  0.8334065325796586  0.0832921667392732  0.3165049876844580   T   T   T
  0.9166653959112453  0.1666583181146730  0.3165065779371261   T   T   T
  0.5005137262677490  0.2497225236013465  0.3165004716365523   T   T   T
  0.5832871038743772  0.3331771097837422  0.3165475380230356   T   T   T
  0.6667438559995246  0.4166307987798272  0.3164897568564083   T   T   T
  0.7501442330099177  0.2498694493627120  0.3165869301845912   T   T   T
  0.8332992693999460  0.3333055150477136  0.3165479643282949   T   T   T
  0.9167630458540869  0.4166494513761742  0.3164562892634640   T   T   T
  0.4999999999992468  0.5833333333312822  0.0000000000000000   F   F   F
  0.6666666666684407  0.5000000000000000  0.0000000000000000   F   F   F
  0.5833333333336412  0.6666666666687178  0.0000000000000000   F   F   F
  0.7500000000005826  0.5833333333312822  0.0000000000000000   F   F   F
  0.9166666666697694  0.5000000000000000  0.0000000000000000   F   F   F
  0.8333333333349700  0.6666666666687178  0.0000000000000000   F   F   F
  0.5000000000019114  0.8333333333312822  0.0000000000000000   F   F   F
  0.6666666666657761  0.7500000000000000  0.0000000000000000   F   F   F
  0.5833333333309767  0.9166666666687178  0.0000000000000000   F   F   F
  0.7500000000032401  0.8333333333312822  0.0000000000000000   F   F   F
  0.9166666666671119  0.7500000000000000  0.0000000000000000   F   F   F
  0.8333333333323054  0.9166666666687178  0.0000000000000000   F   F   F
  0.5000000000026574  0.5000000000000000  0.1071978058550016   F   F   F
  0.5833333333347994  0.5833333333312822  0.1071978058550016   F   F   F
  0.6666666666638719  0.6666666666687178  0.1071978058550016   F   F   F
  0.7499999999986713  0.5000000000000000  0.1071978058550016   F   F   F
  0.8333333333361281  0.5833333333312822  0.1071978058550016   F   F   F
  0.9166666666652006  0.6666666666687178  0.1071978058550016   F   F   F
  0.5000000000000000  0.7500000000000000  0.1071978058550016   F   F   F
  0.5833333333321420  0.8333333333312822  0.1071978058550016   F   F   F
  0.6666666666665293  0.9166666666687178  0.1071978058550016   F   F   F
  0.7500000000013287  0.7500000000000000  0.1071978058550016   F   F   F
  0.8333333333334707  0.8333333333312822  0.1071978058550016   F   F   F
  0.9166666666678580  0.9166666666687178  0.1071978058550016   F   F   F
  0.5001130084657001  0.5833179449968983  0.2135684723482844   T   T   T
  0.6665556792126311  0.5000648377271401  0.2136874367534349   T   T   T
  0.5833060097988635  0.6666174404142233  0.2134471998521157   T   T   T
  0.7499870670877872  0.5833729431926681  0.2135932853332529   T   T   T
  0.9165532736678876  0.4999850675143535  0.2134612859917844   T   T   T
  0.8333293278655469  0.6666005756481330  0.2135763318877561   T   T   T
  0.5000007951269761  0.8333399790578848  0.2136344359616655   T   T   T
  0.6667421283890200  0.7499425519508115  0.2136177909448311   T   T   T
  0.5834342179355160  0.9165771779146437  0.2134918305541721   T   T   T
  0.7499834021300932  0.8333036137505587  0.2135790635457313   T   T   T
  0.9166752071215123  0.7500104805010038  0.2135918361865027   T   T   T
  0.8333098696860376  0.9166971778528968  0.2135872322529475   T   T   T
  0.4999251974259781  0.4999244062268673  0.3162814065292943   T   T   T
  0.5838858834275146  0.5826597841432889  0.3163087405480868   T   T   T
  0.6663637166539568  0.6669837298508183  0.3166255335992728   T   T   T
  0.7500060813459819  0.4998314477280497  0.3167835080101581   T   T   T
  0.8334800415262605  0.5833799002297396  0.3164926805179553   T   T   T
  0.9166100763357915  0.6666781185012269  0.3165141970999549   T   T   T
  0.4999980577762034  0.7506658380938270  0.3164629246115414   T   T   T
  0.5833593000318247  0.8333833320257379  0.3165012822891620   T   T   T
  0.6666877312559721  0.9166652491014411  0.3164997276805134   T   T   T
  0.7500503417174528  0.7499935455280534  0.3166796830491799   T   T   T
  0.8333213720107659  0.8333217874899639  0.3165791461093832   T   T   T
  0.9166367881567612  0.9166620718913232  0.3165120754298364   T   T   T
  0.2413820352418135  0.4252652260616247  0.5170922050253044   T   T   T
  0.2763143052961289  0.3502214212908061  0.5805734845677715   T   T   T
  0.3988662817801225  0.3637863518310515  0.6007163199273229   T   T   T
  0.3066031320006468  0.4582366887562976  0.6123760085889646   T   T   T
  0.4165558240024566  0.4104221320618162  0.4883521931549780   T   T   T
  0.4678644807354616  0.4369372086234107  0.6013864750394821   T   T   T
  0.3858713893703410  0.5393152540403080  0.5946628993403970   T   T   T
  0.4462623028161751  0.5404942459704627  0.4773952363688065   T   T   T
  0.5605347328607195  0.5194996997102598  0.5934342224410714   T   T   T
  0.4591784034293055  0.6040856785981489  0.5904428211731182   T   T   T
  0.5780472768984312  0.5633101504202365  0.4735924051901927   T   T   T
  0.6245502565842642  0.5945221628581385  0.5909663568930789   T   T   T
  0.5459880237755572  0.6965907822009125  0.5749619093502568   T   T   T
  0.6177290220512074  0.6740693635707360  0.4565236870003046   T   T   T
  0.6168831034702973  0.7703076810270693  0.5426610465325840   T   T   T
  0.7144277828078451  0.7171137483504451  0.5021197206450604   T   T   T
  0.7020620934285140  0.6872579016145738  0.5839153198234581   T   T   T
  0.3648915866500280  0.3352557438170042  0.4468300123678044   T   T   T
  0.3140526045569945  0.2804385466827100  0.4702414781038279   T   T   T
  0.4061022643462819  0.2610762277116871  0.5116496703536170   T   T   T
  0.2613371905931882  0.5720687283842487  0.5267955176508087   T   T   T
  0.2709700034973849  0.5071040823705036  0.4583016804851317   T   T   T
  0.3262679067639903  0.5608565686262057  0.4577775138460825   T   T   T
  0.5955638358198060  0.3896111518353084  0.5383829648668210   T   T   T
  0.5967304463670211  0.4401724633089470  0.4632059980013894   T   T   T
  0.5396764281205187  0.3884757583563965  0.4665784697423820   T   T   T
  0.4211137421387974  0.7205831049504285  0.5172620961994445   T   T   T
  0.4297981041189316  0.6573888564469818  0.4476748938797017   T   T   T
  0.4832950358851748  0.7135578922645339  0.4474119769451098   T   T   T
  0.7594169745999146  0.5396616869889147  0.5390078782688063   T   T   T
  0.7677286663285697  0.5725129354067375  0.4571302175135297   T   T   T
  0.7108581138334703  0.5211671573479280  0.4698197418437713   T   T   T
  0.2974103789168762  0.3764134883460526  0.5411596083411918   T   T   T
  0.3455261588620729  0.4131368567977855  0.5740633776190047   T   T   T
  0.3480153955745767  0.3095717492106052  0.4899341140498316   T   T   T
  0.3767083027543211  0.4556640349403433  0.5263197036174503   T   T   T
  0.4282566233327658  0.4847548945715814  0.5649981622516516   T   T   T
  0.3050763641937465  0.5276998005203087  0.4903264629103543   T   T   T
  0.4827796110744642  0.5053352710948039  0.5212840678241771   T   T   T
  0.5101799478620358  0.5590283586065271  0.5589144386249310   T   T   T
  0.5577484006803953  0.4265948234132529  0.4958806292894578   T   T   T
  0.5383129650242847  0.6060185733904868  0.5131640525708895   T   T   T
  0.5887157505388875  0.6376922469293008  0.5504826258775326   T   T   T
  0.4642597099358745  0.6781507703697220  0.4795010283289510   T   T   T
  0.6487414743490129  0.6487665978644256  0.5052365736798107   T   T   T
  0.6717089703139133  0.7095301299806260  0.5350597659851044   T   T   T
  0.7258604762074901  0.5658669623895731  0.4919302942794126   T   T   T
 
  0.00000000E+00  0.00000000E+00  0.00000000E+00
  0.00000000E+00  0.00000000E+00  0.00000000E+00
  0.00000000E+00  0.00000000E+00  0.00000000E+00
  0.00000000E+00  0.00000000E+00  0.00000000E+00
  0.00000000E+00  0.00000000E+00  0.00000000E+00
  0.00000000E+00  0.00000000E+00  0.00000000E+00
  0.00000000E+00  0.00000000E+00  0.00000000E+00
  0.00000000E+00  0.00000000E+00  0.00000000E+00
  0.00000000E+00  0.00000000E+00  0.00000000E+00
  0.00000000E+00  0.00000000E+00  0.00000000E+00
  0.00000000E+00  0.00000000E+00  0.00000000E+00
  0.00000000E+00  0.00000000E+00  0.00000000E+00
  0.00000000E+00  0.00000000E+00  0.00000000E+00
  0.00000000E+00  0.00000000E+00  0.00000000E+00
  0.00000000E+00  0.00000000E+00  0.00000000E+00
  0.00000000E+00  0.00000000E+00  0.00000000E+00
  0.00000000E+00  0.00000000E+00  0.00000000E+00
  0.00000000E+00  0.00000000E+00  0.00000000E+00
  0.00000000E+00  0.00000000E+00  0.00000000E+00
  0.00000000E+00  0.00000000E+00  0.00000000E+00
  0.00000000E+00  0.00000000E+00  0.00000000E+00
  0.00000000E+00  0.00000000E+00  0.00000000E+00
  0.00000000E+00  0.00000000E+00  0.00000000E+00
  0.00000000E+00  0.00000000E+00  0.00000000E+00
  0.00000000E+00  0.00000000E+00  0.00000000E+00
  0.00000000E+00  0.00000000E+00  0.00000000E+00
  0.00000000E+00  0.00000000E+00  0.00000000E+00
  0.00000000E+00  0.00000000E+00  0.00000000E+00
  0.00000000E+00  0.00000000E+00  0.00000000E+00
  0.00000000E+00  0.00000000E+00  0.00000000E+00
  0.00000000E+00  0.00000000E+00  0.00000000E+00
  0.00000000E+00  0.00000000E+00  0.00000000E+00
  0.00000000E+00  0.00000000E+00  0.00000000E+00
  0.00000000E+00  0.00000000E+00  0.00000000E+00
  0.00000000E+00  0.00000000E+00  0.00000000E+00
  0.00000000E+00  0.00000000E+00  0.00000000E+00
  0.00000000E+00  0.00000000E+00  0.00000000E+00
  0.00000000E+00  0.00000000E+00  0.00000000E+00
  0.00000000E+00  0.00000000E+00  0.00000000E+00
  0.00000000E+00  0.00000000E+00  0.00000000E+00
  0.00000000E+00  0.00000000E+00  0.00000000E+00
  0.00000000E+00  0.00000000E+00  0.00000000E+00
  0.00000000E+00  0.00000000E+00  0.00000000E+00
  0.00000000E+00  0.00000000E+00  0.00000000E+00
  0.00000000E+00  0.00000000E+00  0.00000000E+00
  0.00000000E+00  0.00000000E+00  0.00000000E+00
  0.00000000E+00  0.00000000E+00  0.00000000E+00
  0.00000000E+00  0.00000000E+00  0.00000000E+00
  0.00000000E+00  0.00000000E+00  0.00000000E+00
  0.00000000E+00  0.00000000E+00  0.00000000E+00
  0.00000000E+00  0.00000000E+00  0.00000000E+00
  0.00000000E+00  0.00000000E+00  0.00000000E+00
  0.00000000E+00  0.00000000E+00  0.00000000E+00
  0.00000000E+00  0.00000000E+00  0.00000000E+00
  0.00000000E+00  0.00000000E+00  0.00000000E+00
  0.00000000E+00  0.00000000E+00  0.00000000E+00
  0.00000000E+00  0.00000000E+00  0.00000000E+00
  0.00000000E+00  0.00000000E+00  0.00000000E+00
  0.00000000E+00  0.00000000E+00  0.00000000E+00
  0.00000000E+00  0.00000000E+00  0.00000000E+00
  0.00000000E+00  0.00000000E+00  0.00000000E+00
  0.00000000E+00  0.00000000E+00  0.00000000E+00
  0.00000000E+00  0.00000000E+00  0.00000000E+00
  0.00000000E+00  0.00000000E+00  0.00000000E+00
  0.00000000E+00  0.00000000E+00  0.00000000E+00
  0.00000000E+00  0.00000000E+00  0.00000000E+00
  0.00000000E+00  0.00000000E+00  0.00000000E+00
  0.00000000E+00  0.00000000E+00  0.00000000E+00
  0.00000000E+00  0.00000000E+00  0.00000000E+00
  0.00000000E+00  0.00000000E+00  0.00000000E+00
  0.00000000E+00  0.00000000E+00  0.00000000E+00
  0.00000000E+00  0.00000000E+00  0.00000000E+00
  0.00000000E+00  0.00000000E+00  0.00000000E+00
  0.00000000E+00  0.00000000E+00  0.00000000E+00
  0.00000000E+00  0.00000000E+00  0.00000000E+00
  0.00000000E+00  0.00000000E+00  0.00000000E+00
  0.00000000E+00  0.00000000E+00  0.00000000E+00
  0.00000000E+00  0.00000000E+00  0.00000000E+00
  0.00000000E+00  0.00000000E+00  0.00000000E+00
  0.00000000E+00  0.00000000E+00  0.00000000E+00
  0.00000000E+00  0.00000000E+00  0.00000000E+00
  0.00000000E+00  0.00000000E+00  0.00000000E+00
  0.00000000E+00  0.00000000E+00  0.00000000E+00
  0.00000000E+00  0.00000000E+00  0.00000000E+00
  0.00000000E+00  0.00000000E+00  0.00000000E+00
  0.00000000E+00  0.00000000E+00  0.00000000E+00
  0.00000000E+00  0.00000000E+00  0.00000000E+00
  0.00000000E+00  0.00000000E+00  0.00000000E+00
  0.00000000E+00  0.00000000E+00  0.00000000E+00
  0.00000000E+00  0.00000000E+00  0.00000000E+00
  0.00000000E+00  0.00000000E+00  0.00000000E+00
  0.00000000E+00  0.00000000E+00  0.00000000E+00
  0.00000000E+00  0.00000000E+00  0.00000000E+00
  0.00000000E+00  0.00000000E+00  0.00000000E+00
  0.00000000E+00  0.00000000E+00  0.00000000E+00
  0.00000000E+00  0.00000000E+00  0.00000000E+00
  0.00000000E+00  0.00000000E+00  0.00000000E+00
  0.00000000E+00  0.00000000E+00  0.00000000E+00
  0.00000000E+00  0.00000000E+00  0.00000000E+00
  0.00000000E+00  0.00000000E+00  0.00000000E+00
  0.00000000E+00  0.00000000E+00  0.00000000E+00
  0.00000000E+00  0.00000000E+00  0.00000000E+00
  0.00000000E+00  0.00000000E+00  0.00000000E+00
  0.00000000E+00  0.00000000E+00  0.00000000E+00
  0.00000000E+00  0.00000000E+00  0.00000000E+00
  0.00000000E+00  0.00000000E+00  0.00000000E+00
  0.00000000E+00  0.00000000E+00  0.00000000E+00
  0.00000000E+00  0.00000000E+00  0.00000000E+00
  0.00000000E+00  0.00000000E+00  0.00000000E+00
  0.00000000E+00  0.00000000E+00  0.00000000E+00
  0.00000000E+00  0.00000000E+00  0.00000000E+00
  0.00000000E+00  0.00000000E+00  0.00000000E+00
  0.00000000E+00  0.00000000E+00  0.00000000E+00
  0.00000000E+00  0.00000000E+00  0.00000000E+00
  0.00000000E+00  0.00000000E+00  0.00000000E+00
  0.00000000E+00  0.00000000E+00  0.00000000E+00
  0.00000000E+00  0.00000000E+00  0.00000000E+00
  0.00000000E+00  0.00000000E+00  0.00000000E+00
  0.00000000E+00  0.00000000E+00  0.00000000E+00
  0.00000000E+00  0.00000000E+00  0.00000000E+00
  0.00000000E+00  0.00000000E+00  0.00000000E+00
  0.00000000E+00  0.00000000E+00  0.00000000E+00
  0.00000000E+00  0.00000000E+00  0.00000000E+00
  0.00000000E+00  0.00000000E+00  0.00000000E+00
  0.00000000E+00  0.00000000E+00  0.00000000E+00
  0.00000000E+00  0.00000000E+00  0.00000000E+00
  0.00000000E+00  0.00000000E+00  0.00000000E+00
  0.00000000E+00  0.00000000E+00  0.00000000E+00
  0.00000000E+00  0.00000000E+00  0.00000000E+00
  0.00000000E+00  0.00000000E+00  0.00000000E+00
  0.00000000E+00  0.00000000E+00  0.00000000E+00
  0.00000000E+00  0.00000000E+00  0.00000000E+00
  0.00000000E+00  0.00000000E+00  0.00000000E+00
  0.00000000E+00  0.00000000E+00  0.00000000E+00
  0.00000000E+00  0.00000000E+00  0.00000000E+00
  0.00000000E+00  0.00000000E+00  0.00000000E+00
  0.00000000E+00  0.00000000E+00  0.00000000E+00
  0.00000000E+00  0.00000000E+00  0.00000000E+00
  0.00000000E+00  0.00000000E+00  0.00000000E+00
  0.00000000E+00  0.00000000E+00  0.00000000E+00
  0.00000000E+00  0.00000000E+00  0.00000000E+00
  0.00000000E+00  0.00000000E+00  0.00000000E+00
  0.00000000E+00  0.00000000E+00  0.00000000E+00
  0.00000000E+00  0.00000000E+00  0.00000000E+00
  0.00000000E+00  0.00000000E+00  0.00000000E+00
  0.00000000E+00  0.00000000E+00  0.00000000E+00
  0.00000000E+00  0.00000000E+00  0.00000000E+00
  0.00000000E+00  0.00000000E+00  0.00000000E+00
  0.00000000E+00  0.00000000E+00  0.00000000E+00
  0.00000000E+00  0.00000000E+00  0.00000000E+00
  0.00000000E+00  0.00000000E+00  0.00000000E+00
  0.00000000E+00  0.00000000E+00  0.00000000E+00
  0.00000000E+00  0.00000000E+00  0.00000000E+00
  0.00000000E+00  0.00000000E+00  0.00000000E+00
  0.00000000E+00  0.00000000E+00  0.00000000E+00
  0.00000000E+00  0.00000000E+00  0.00000000E+00
  0.00000000E+00  0.00000000E+00  0.00000000E+00
  0.00000000E+00  0.00000000E+00  0.00000000E+00
  0.00000000E+00  0.00000000E+00  0.00000000E+00
  0.00000000E+00  0.00000000E+00  0.00000000E+00
  0.00000000E+00  0.00000000E+00  0.00000000E+00
  0.00000000E+00  0.00000000E+00  0.00000000E+00
  0.00000000E+00  0.00000000E+00  0.00000000E+00
  0.00000000E+00  0.00000000E+00  0.00000000E+00
  0.00000000E+00  0.00000000E+00  0.00000000E+00
  0.00000000E+00  0.00000000E+00  0.00000000E+00
  0.00000000E+00  0.00000000E+00  0.00000000E+00
  0.00000000E+00  0.00000000E+00  0.00000000E+00
  0.00000000E+00  0.00000000E+00  0.00000000E+00
  0.00000000E+00  0.00000000E+00  0.00000000E+00
  0.00000000E+00  0.00000000E+00  0.00000000E+00
  0.00000000E+00  0.00000000E+00  0.00000000E+00
  0.00000000E+00  0.00000000E+00  0.00000000E+00
  0.00000000E+00  0.00000000E+00  0.00000000E+00
  0.00000000E+00  0.00000000E+00  0.00000000E+00
  0.00000000E+00  0.00000000E+00  0.00000000E+00
  0.00000000E+00  0.00000000E+00  0.00000000E+00
  0.00000000E+00  0.00000000E+00  0.00000000E+00
  0.00000000E+00  0.00000000E+00  0.00000000E+00
  0.00000000E+00  0.00000000E+00  0.00000000E+00
  0.00000000E+00  0.00000000E+00  0.00000000E+00
  0.00000000E+00  0.00000000E+00  0.00000000E+00
  0.00000000E+00  0.00000000E+00  0.00000000E+00
  0.00000000E+00  0.00000000E+00  0.00000000E+00
  0.00000000E+00  0.00000000E+00  0.00000000E+00
  0.00000000E+00  0.00000000E+00  0.00000000E+00
  0.00000000E+00  0.00000000E+00  0.00000000E+00
  0.00000000E+00  0.00000000E+00  0.00000000E+00
  0.00000000E+00  0.00000000E+00  0.00000000E+00
  0.00000000E+00  0.00000000E+00  0.00000000E+00
  0.00000000E+00  0.00000000E+00  0.00000000E+00
  0.00000000E+00  0.00000000E+00  0.00000000E+00
  0.00000000E+00  0.00000000E+00  0.00000000E+00
  0.00000000E+00  0.00000000E+00  0.00000000E+00
  0.00000000E+00  0.00000000E+00  0.00000000E+00
  0.00000000E+00  0.00000000E+00  0.00000000E+00
  0.00000000E+00  0.00000000E+00  0.00000000E+00
  0.00000000E+00  0.00000000E+00  0.00000000E+00
  0.00000000E+00  0.00000000E+00  0.00000000E+00
  0.00000000E+00  0.00000000E+00  0.00000000E+00
  0.00000000E+00  0.00000000E+00  0.00000000E+00
  0.00000000E+00  0.00000000E+00  0.00000000E+00
  0.00000000E+00  0.00000000E+00  0.00000000E+00
  0.00000000E+00  0.00000000E+00  0.00000000E+00
  0.00000000E+00  0.00000000E+00  0.00000000E+00
  0.00000000E+00  0.00000000E+00  0.00000000E+00
  0.00000000E+00  0.00000000E+00  0.00000000E+00
  0.00000000E+00  0.00000000E+00  0.00000000E+00
  0.00000000E+00  0.00000000E+00  0.00000000E+00
  0.00000000E+00  0.00000000E+00  0.00000000E+00
  0.00000000E+00  0.00000000E+00  0.00000000E+00
  0.00000000E+00  0.00000000E+00  0.00000000E+00
  0.00000000E+00  0.00000000E+00  0.00000000E+00
  0.00000000E+00  0.00000000E+00  0.00000000E+00
  0.00000000E+00  0.00000000E+00  0.00000000E+00
  0.00000000E+00  0.00000000E+00  0.00000000E+00
  0.00000000E+00  0.00000000E+00  0.00000000E+00
  0.00000000E+00  0.00000000E+00  0.00000000E+00
  0.00000000E+00  0.00000000E+00  0.00000000E+00
  0.00000000E+00  0.00000000E+00  0.00000000E+00
  0.00000000E+00  0.00000000E+00  0.00000000E+00
  0.00000000E+00  0.00000000E+00  0.00000000E+00
  0.00000000E+00  0.00000000E+00  0.00000000E+00
  0.00000000E+00  0.00000000E+00  0.00000000E+00
  0.00000000E+00  0.00000000E+00  0.00000000E+00
  0.00000000E+00  0.00000000E+00  0.00000000E+00
  0.00000000E+00  0.00000000E+00  0.00000000E+00
  0.00000000E+00  0.00000000E+00  0.00000000E+00
  0.00000000E+00  0.00000000E+00  0.00000000E+00
  0.00000000E+00  0.00000000E+00  0.00000000E+00
  0.00000000E+00  0.00000000E+00  0.00000000E+00
  0.00000000E+00  0.00000000E+00  0.00000000E+00
  0.00000000E+00  0.00000000E+00  0.00000000E+00
  0.00000000E+00  0.00000000E+00  0.00000000E+00
  0.00000000E+00  0.00000000E+00  0.00000000E+00
  0.00000000E+00  0.00000000E+00  0.00000000E+00
  0.00000000E+00  0.00000000E+00  0.00000000E+00
  0.00000000E+00  0.00000000E+00  0.00000000E+00
  0.00000000E+00  0.00000000E+00  0.00000000E+00
