Cu                                      
   1.00000000000000     
    15.1479005814000001    0.0000000000000000    0.0000000000000000
    -7.5739502907000000   13.1184667176000005    0.0000000000000000
     0.0000000000000000    0.0000000000000000   21.1840000153000005
   Cu
   144
Selective dynamics
Direct
  0.0000000000000000  0.0000000000000000  0.0000000000000000   F   F   F
  0.0000000000033040  0.1666666666666643  0.0000000000000000   F   F   F
  0.1666666666633674  0.1666666666666643  0.0000000000000000   F   F   F
  0.1666666666666643  0.0000000000000000  0.0000000000000000   F   F   F
  0.0000000000000000  0.3333333333333357  0.0000000000000000   F   F   F
  0.0000000000033040  0.5000000000000000  0.0000000000000000   F   F   F
  0.1666666666699683  0.5000000000000000  0.0000000000000000   F   F   F
  0.1666666666666643  0.3333333333333357  0.0000000000000000   F   F   F
  0.0000000000000000  0.6666666666666643  0.0000000000000000   F   F   F
  0.0000000000033040  0.8333333333333357  0.0000000000000000   F   F   F
  0.1666666666699683  0.8333333333333357  0.0000000000000000   F   F   F
  0.1666666666666643  0.6666666666666643  0.0000000000000000   F   F   F
  0.3333333333333357  0.0000000000000000  0.0000000000000000   F   F   F
  0.3333333333300317  0.1666666666666643  0.0000000000000000   F   F   F
  0.4999999999966960  0.1666666666666643  0.0000000000000000   F   F   F
  0.5000000000000000  0.0000000000000000  0.0000000000000000   F   F   F
  0.3333333333333357  0.3333333333333357  0.0000000000000000   F   F   F
  0.3333333333300317  0.5000000000000000  0.0000000000000000   F   F   F
  0.5000000000033040  0.5000000000000000  0.0000000000000000   F   F   F
  0.5000000000000000  0.3333333333333357  0.0000000000000000   F   F   F
  0.3333333333333357  0.6666666666666643  0.0000000000000000   F   F   F
  0.3333333333300317  0.8333333333333357  0.0000000000000000   F   F   F
  0.5000000000033040  0.8333333333333357  0.0000000000000000   F   F   F
  0.5000000000000000  0.6666666666666643  0.0000000000000000   F   F   F
  0.6666666666666643  0.0000000000000000  0.0000000000000000   F   F   F
  0.6666666666633674  0.1666666666666643  0.0000000000000000   F   F   F
  0.8333333333300317  0.1666666666666643  0.0000000000000000   F   F   F
  0.8333333333333357  0.0000000000000000  0.0000000000000000   F   F   F
  0.6666666666666643  0.3333333333333357  0.0000000000000000   F   F   F
  0.6666666666633674  0.5000000000000000  0.0000000000000000   F   F   F
  0.8333333333300317  0.5000000000000000  0.0000000000000000   F   F   F
  0.8333333333333357  0.3333333333333357  0.0000000000000000   F   F   F
  0.6666666666666643  0.6666666666666643  0.0000000000000000   F   F   F
  0.6666666666633674  0.8333333333333357  0.0000000000000000   F   F   F
  0.8333333333300317  0.8333333333333357  0.0000000000000000   F   F   F
  0.8333333333333357  0.6666666666666643  0.0000000000000000   F   F   F
  0.2222233413375676  0.1111100016699709  0.0973099989997692   F   F   F
  0.2222233413299222  0.2777766586632495  0.0973099989997692   F   F   F
  0.0555566649985550  0.2777766586632495  0.0973099989997692   F   F   F
  0.0555566649995924  0.1111100016699709  0.0973099989997692   F   F   F
  0.2222233413375676  0.4444433350033066  0.0973099989997692   F   F   F
  0.2222233413299222  0.6111099919965852  0.0973099989997692   F   F   F
  0.0555566649985550  0.6111099919965852  0.0973099989997692   F   F   F
  0.0555566649995924  0.4444433350033066  0.0973099989997692   F   F   F
  0.2222233413375676  0.7777766683366352  0.0973099989997692   F   F   F
  0.2222233413299222  0.9444433253299209  0.0973099989997692   F   F   F
  0.0555566649985550  0.9444433253299209  0.0973099989997692   F   F   F
  0.0555566649995924  0.7777766683366352  0.0973099989997692   F   F   F
  0.5555566746708962  0.1111100016699709  0.0973099989997692   F   F   F
  0.5555566746632579  0.2777766586632495  0.0973099989997692   F   F   F
  0.3888899983318836  0.2777766586632495  0.0973099989997692   F   F   F
  0.3888899983329281  0.1111100016699709  0.0973099989997692   F   F   F
  0.5555566746708962  0.4444433350033066  0.0973099989997692   F   F   F
  0.5555566746632579  0.6111099919965852  0.0973099989997692   F   F   F
  0.3888899983318836  0.6111099919965852  0.0973099989997692   F   F   F
  0.3888899983329281  0.4444433350033066  0.0973099989997692   F   F   F
  0.5555566746708962  0.7777766683366352  0.0973099989997692   F   F   F
  0.5555566746632579  0.9444433253299209  0.0973099989997692   F   F   F
  0.3888899983318836  0.9444433253299209  0.0973099989997692   F   F   F
  0.3888899983329281  0.7777766683366352  0.0973099989997692   F   F   F
  0.8888900080042319  0.1111100016699709  0.0973099989997692   F   F   F
  0.8888900079965936  0.2777766586632495  0.0973099989997692   F   F   F
  0.7222233316652193  0.2777766586632495  0.0973099989997692   F   F   F
  0.7222233316662567  0.1111100016699709  0.0973099989997692   F   F   F
  0.8888900080042319  0.4444433350033066  0.0973099989997692   F   F   F
  0.8888900079965936  0.6111099919965852  0.0973099989997692   F   F   F
  0.7222233316652193  0.6111099919965852  0.0973099989997692   F   F   F
  0.7222233316662567  0.4444433350033066  0.0973099989997692   F   F   F
  0.8888900080042319  0.7777766683366352  0.0973099989997692   F   F   F
  0.8888900079965936  0.9444433253299209  0.0973099989997692   F   F   F
  0.7222233316652193  0.9444433253299209  0.0973099989997692   F   F   F
  0.7222233316662567  0.7777766683366352  0.0973099989997692   F   F   F
  0.1111100016714133  0.2222233413367505  0.1958660885545020   T   T   T
  0.1111100016637749  0.0555566649966934  0.1958660885545020   T   T   T
  0.2777766586657364  0.0555566649966934  0.1958660885545020   T   T   T
  0.2777766586667738  0.2222233413367505  0.1958660885545020   T   T   T
  0.1111100016714133  0.5555566746700791  0.1958660885545020   T   T   T
  0.1111100016637749  0.3888899983300291  0.1958660885545020   T   T   T
  0.2777766586657364  0.3888899983300291  0.1958660885545020   T   T   T
  0.2777766586667738  0.5555566746700791  0.1958660885545020   T   T   T
  0.1111100016714133  0.8888900080034148  0.1958660885545020   T   T   T
  0.1111100016637749  0.7222233316633648  0.1958660885545020   T   T   T
  0.2777766586657364  0.7222233316633648  0.1958660885545020   T   T   T
  0.2777766586667738  0.8888900080034148  0.1958660885545020   T   T   T
  0.4444433350047490  0.2222233413367505  0.1958660885545020   T   T   T
  0.4444433349971106  0.0555566649966934  0.1958660885545020   T   T   T
  0.6111099919990721  0.0555566649966934  0.1958660885545020   T   T   T
  0.6111099920001095  0.2222233413367505  0.1958660885545020   T   T   T
  0.4444433350047490  0.5555566746700791  0.1958660885545020   T   T   T
  0.4444433349971106  0.3888899983300291  0.1958660885545020   T   T   T
  0.6111099919990721  0.3888899983300291  0.1958660885545020   T   T   T
  0.6111099920001095  0.5555566746700791  0.1958660885545020   T   T   T
  0.4444433350047490  0.8888900080034148  0.1958660885545020   T   T   T
  0.4444433349971106  0.7222233316633648  0.1958660885545020   T   T   T
  0.6111099919990721  0.7222233316633648  0.1958660885545020   T   T   T
  0.6111099920001095  0.8888900080034148  0.1958660885545020   T   T   T
  0.7777766683380847  0.2222233413367505  0.1958660885545020   T   T   T
  0.7777766683304392  0.0555566649966934  0.1958660885545020   T   T   T
  0.9444433253324007  0.0555566649966934  0.1958660885545020   T   T   T
  0.9444433253334452  0.2222233413367505  0.1958660885545020   T   T   T
  0.7777766683380847  0.5555566746700791  0.1958660885545020   T   T   T
  0.7777766683304392  0.3888899983300291  0.1958660885545020   T   T   T
  0.9444433253324007  0.3888899983300291  0.1958660885545020   T   T   T
  0.9444433253334381  0.5555566746700791  0.1958660885545020   T   T   T
  0.7777766683380847  0.8888900080034148  0.1958660885545020   T   T   T
  0.7777766683304392  0.7222233316633648  0.1958660885545020   T   T   T
  0.9444433253324007  0.7222233316633648  0.1958660885545020   T   T   T
  0.9444433253334381  0.8888900080034148  0.1958660885545020   T   T   T
 -0.0000000000000000  0.0000000000000000  0.2941590431798467   T   T   T
  0.0000000000033040  0.1666666666666643  0.2941590431798467   T   T   T
  0.1666666666633674  0.1666666666666643  0.2941590431798467   T   T   T
  0.1666666666666643  0.0000000000000000  0.2941590431798467   T   T   T
 -0.0000000000000000  0.3333333333333357  0.2941590431798467   T   T   T
  0.0000000000033040  0.5000000000000000  0.2941590431798467   T   T   T
  0.1666666666699683  0.5000000000000000  0.2941590431798467   T   T   T
  0.1666666666666643  0.3333333333333357  0.2941590431798467   T   T   T
 -0.0000000000000000  0.6666666666666643  0.2941590431798467   T   T   T
  0.0000000000033040  0.8333333333333357  0.2941590431798467   T   T   T
  0.1666666666699683  0.8333333333333357  0.2941590431798467   T   T   T
  0.1666666666666643  0.6666666666666643  0.2941590431798467   T   T   T
  0.3333333333333357  0.0000000000000000  0.2941590431798467   T   T   T
  0.3333333333300317  0.1666666666666643  0.2941590431798467   T   T   T
  0.4999999999966960  0.1666666666666643  0.2941590431798467   T   T   T
  0.5000000000000000  0.0000000000000000  0.2941590431798467   T   T   T
  0.3333333333333357  0.3333333333333357  0.2941590431798467   T   T   T
  0.3333333333300317  0.5000000000000000  0.2941590431798467   T   T   T
  0.5000000000033040  0.5000000000000000  0.2941590431798467   T   T   T
  0.5000000000000000  0.3333333333333357  0.2941590431798467   T   T   T
  0.3333333333333357  0.6666666666666643  0.2941590431798467   T   T   T
  0.3333333333300317  0.8333333333333357  0.2941590431798467   T   T   T
  0.5000000000033040  0.8333333333333357  0.2941590431798467   T   T   T
  0.5000000000000000  0.6666666666666643  0.2941590431798467   T   T   T
  0.6666666666666643  0.0000000000000000  0.2941590431798467   T   T   T
  0.6666666666633674  0.1666666666666643  0.2941590431798467   T   T   T
  0.8333333333300317  0.1666666666666643  0.2941590431798467   T   T   T
  0.8333333333333357  0.0000000000000000  0.2941590431798467   T   T   T
  0.6666666666666643  0.3333333333333357  0.2941590431798467   T   T   T
  0.6666666666633674  0.5000000000000000  0.2941590431798467   T   T   T
  0.8333333333300317  0.5000000000000000  0.2941590431798467   T   T   T
  0.8333333333333357  0.3333333333333357  0.2941590431798467   T   T   T
  0.6666666666666643  0.6666666666666643  0.2941590431798467   T   T   T
  0.6666666666633674  0.8333333333333357  0.2941590431798467   T   T   T
  0.8333333333300317  0.8333333333333357  0.2941590431798467   T   T   T
  0.8333333333333357  0.6666666666666643  0.2941590431798467   T   T   T
 
  0.00000000E+00  0.00000000E+00  0.00000000E+00
  0.00000000E+00  0.00000000E+00  0.00000000E+00
  0.00000000E+00  0.00000000E+00  0.00000000E+00
  0.00000000E+00  0.00000000E+00  0.00000000E+00
  0.00000000E+00  0.00000000E+00  0.00000000E+00
  0.00000000E+00  0.00000000E+00  0.00000000E+00
  0.00000000E+00  0.00000000E+00  0.00000000E+00
  0.00000000E+00  0.00000000E+00  0.00000000E+00
  0.00000000E+00  0.00000000E+00  0.00000000E+00
  0.00000000E+00  0.00000000E+00  0.00000000E+00
  0.00000000E+00  0.00000000E+00  0.00000000E+00
  0.00000000E+00  0.00000000E+00  0.00000000E+00
  0.00000000E+00  0.00000000E+00  0.00000000E+00
  0.00000000E+00  0.00000000E+00  0.00000000E+00
  0.00000000E+00  0.00000000E+00  0.00000000E+00
  0.00000000E+00  0.00000000E+00  0.00000000E+00
  0.00000000E+00  0.00000000E+00  0.00000000E+00
  0.00000000E+00  0.00000000E+00  0.00000000E+00
  0.00000000E+00  0.00000000E+00  0.00000000E+00
  0.00000000E+00  0.00000000E+00  0.00000000E+00
  0.00000000E+00  0.00000000E+00  0.00000000E+00
  0.00000000E+00  0.00000000E+00  0.00000000E+00
  0.00000000E+00  0.00000000E+00  0.00000000E+00
  0.00000000E+00  0.00000000E+00  0.00000000E+00
  0.00000000E+00  0.00000000E+00  0.00000000E+00
  0.00000000E+00  0.00000000E+00  0.00000000E+00
  0.00000000E+00  0.00000000E+00  0.00000000E+00
  0.00000000E+00  0.00000000E+00  0.00000000E+00
  0.00000000E+00  0.00000000E+00  0.00000000E+00
  0.00000000E+00  0.00000000E+00  0.00000000E+00
  0.00000000E+00  0.00000000E+00  0.00000000E+00
  0.00000000E+00  0.00000000E+00  0.00000000E+00
  0.00000000E+00  0.00000000E+00  0.00000000E+00
  0.00000000E+00  0.00000000E+00  0.00000000E+00
  0.00000000E+00  0.00000000E+00  0.00000000E+00
  0.00000000E+00  0.00000000E+00  0.00000000E+00
  0.00000000E+00  0.00000000E+00  0.00000000E+00
  0.00000000E+00  0.00000000E+00  0.00000000E+00
  0.00000000E+00  0.00000000E+00  0.00000000E+00
  0.00000000E+00  0.00000000E+00  0.00000000E+00
  0.00000000E+00  0.00000000E+00  0.00000000E+00
  0.00000000E+00  0.00000000E+00  0.00000000E+00
  0.00000000E+00  0.00000000E+00  0.00000000E+00
  0.00000000E+00  0.00000000E+00  0.00000000E+00
  0.00000000E+00  0.00000000E+00  0.00000000E+00
  0.00000000E+00  0.00000000E+00  0.00000000E+00
  0.00000000E+00  0.00000000E+00  0.00000000E+00
  0.00000000E+00  0.00000000E+00  0.00000000E+00
  0.00000000E+00  0.00000000E+00  0.00000000E+00
  0.00000000E+00  0.00000000E+00  0.00000000E+00
  0.00000000E+00  0.00000000E+00  0.00000000E+00
  0.00000000E+00  0.00000000E+00  0.00000000E+00
  0.00000000E+00  0.00000000E+00  0.00000000E+00
  0.00000000E+00  0.00000000E+00  0.00000000E+00
  0.00000000E+00  0.00000000E+00  0.00000000E+00
  0.00000000E+00  0.00000000E+00  0.00000000E+00
  0.00000000E+00  0.00000000E+00  0.00000000E+00
  0.00000000E+00  0.00000000E+00  0.00000000E+00
  0.00000000E+00  0.00000000E+00  0.00000000E+00
  0.00000000E+00  0.00000000E+00  0.00000000E+00
  0.00000000E+00  0.00000000E+00  0.00000000E+00
  0.00000000E+00  0.00000000E+00  0.00000000E+00
  0.00000000E+00  0.00000000E+00  0.00000000E+00
  0.00000000E+00  0.00000000E+00  0.00000000E+00
  0.00000000E+00  0.00000000E+00  0.00000000E+00
  0.00000000E+00  0.00000000E+00  0.00000000E+00
  0.00000000E+00  0.00000000E+00  0.00000000E+00
  0.00000000E+00  0.00000000E+00  0.00000000E+00
  0.00000000E+00  0.00000000E+00  0.00000000E+00
  0.00000000E+00  0.00000000E+00  0.00000000E+00
  0.00000000E+00  0.00000000E+00  0.00000000E+00
  0.00000000E+00  0.00000000E+00  0.00000000E+00
  0.00000000E+00  0.00000000E+00  0.00000000E+00
  0.00000000E+00  0.00000000E+00  0.00000000E+00
  0.00000000E+00  0.00000000E+00  0.00000000E+00
  0.00000000E+00  0.00000000E+00  0.00000000E+00
  0.00000000E+00  0.00000000E+00  0.00000000E+00
  0.00000000E+00  0.00000000E+00  0.00000000E+00
  0.00000000E+00  0.00000000E+00  0.00000000E+00
  0.00000000E+00  0.00000000E+00  0.00000000E+00
  0.00000000E+00  0.00000000E+00  0.00000000E+00
  0.00000000E+00  0.00000000E+00  0.00000000E+00
  0.00000000E+00  0.00000000E+00  0.00000000E+00
  0.00000000E+00  0.00000000E+00  0.00000000E+00
  0.00000000E+00  0.00000000E+00  0.00000000E+00
  0.00000000E+00  0.00000000E+00  0.00000000E+00
  0.00000000E+00  0.00000000E+00  0.00000000E+00
  0.00000000E+00  0.00000000E+00  0.00000000E+00
  0.00000000E+00  0.00000000E+00  0.00000000E+00
  0.00000000E+00  0.00000000E+00  0.00000000E+00
  0.00000000E+00  0.00000000E+00  0.00000000E+00
  0.00000000E+00  0.00000000E+00  0.00000000E+00
  0.00000000E+00  0.00000000E+00  0.00000000E+00
  0.00000000E+00  0.00000000E+00  0.00000000E+00
  0.00000000E+00  0.00000000E+00  0.00000000E+00
  0.00000000E+00  0.00000000E+00  0.00000000E+00
  0.00000000E+00  0.00000000E+00  0.00000000E+00
  0.00000000E+00  0.00000000E+00  0.00000000E+00
  0.00000000E+00  0.00000000E+00  0.00000000E+00
  0.00000000E+00  0.00000000E+00  0.00000000E+00
  0.00000000E+00  0.00000000E+00  0.00000000E+00
  0.00000000E+00  0.00000000E+00  0.00000000E+00
  0.00000000E+00  0.00000000E+00  0.00000000E+00
  0.00000000E+00  0.00000000E+00  0.00000000E+00
  0.00000000E+00  0.00000000E+00  0.00000000E+00
  0.00000000E+00  0.00000000E+00  0.00000000E+00
  0.00000000E+00  0.00000000E+00  0.00000000E+00
  0.00000000E+00  0.00000000E+00  0.00000000E+00
  0.00000000E+00  0.00000000E+00  0.00000000E+00
  0.00000000E+00  0.00000000E+00  0.00000000E+00
  0.00000000E+00  0.00000000E+00  0.00000000E+00
  0.00000000E+00  0.00000000E+00  0.00000000E+00
  0.00000000E+00  0.00000000E+00  0.00000000E+00
  0.00000000E+00  0.00000000E+00  0.00000000E+00
  0.00000000E+00  0.00000000E+00  0.00000000E+00
  0.00000000E+00  0.00000000E+00  0.00000000E+00
  0.00000000E+00  0.00000000E+00  0.00000000E+00
  0.00000000E+00  0.00000000E+00  0.00000000E+00
  0.00000000E+00  0.00000000E+00  0.00000000E+00
  0.00000000E+00  0.00000000E+00  0.00000000E+00
  0.00000000E+00  0.00000000E+00  0.00000000E+00
  0.00000000E+00  0.00000000E+00  0.00000000E+00
  0.00000000E+00  0.00000000E+00  0.00000000E+00
  0.00000000E+00  0.00000000E+00  0.00000000E+00
  0.00000000E+00  0.00000000E+00  0.00000000E+00
  0.00000000E+00  0.00000000E+00  0.00000000E+00
  0.00000000E+00  0.00000000E+00  0.00000000E+00
  0.00000000E+00  0.00000000E+00  0.00000000E+00
  0.00000000E+00  0.00000000E+00  0.00000000E+00
  0.00000000E+00  0.00000000E+00  0.00000000E+00
  0.00000000E+00  0.00000000E+00  0.00000000E+00
  0.00000000E+00  0.00000000E+00  0.00000000E+00
  0.00000000E+00  0.00000000E+00  0.00000000E+00
  0.00000000E+00  0.00000000E+00  0.00000000E+00
  0.00000000E+00  0.00000000E+00  0.00000000E+00
  0.00000000E+00  0.00000000E+00  0.00000000E+00
  0.00000000E+00  0.00000000E+00  0.00000000E+00
  0.00000000E+00  0.00000000E+00  0.00000000E+00
  0.00000000E+00  0.00000000E+00  0.00000000E+00
  0.00000000E+00  0.00000000E+00  0.00000000E+00
  0.00000000E+00  0.00000000E+00  0.00000000E+00
  0.00000000E+00  0.00000000E+00  0.00000000E+00
  0.00000000E+00  0.00000000E+00  0.00000000E+00
  0.00000000E+00  0.00000000E+00  0.00000000E+00
