Ru  H  C                                
   1.00000000000000     
    18.7899500611000008    0.0000000000000000    0.0000000000000000
     9.3949750305999995   16.2725740887999990    0.0000000000000000
     0.0000000000000000    0.0000000000000000   20.0000000000000000
   Ru   H    C 
   192    26    12
Selective dynamics
Direct
  0.0000000000019114  0.0833333333312822  0.0000000000000000   F   F   F
  0.1666666666657761  0.0000000000000000  0.0000000000000000   F   F   F
  0.0833333333309767  0.1666666666687178  0.0000000000000000   F   F   F
  0.2500000000032401  0.0833333333312822  0.0000000000000000   F   F   F
  0.4166666666671119  0.0000000000000000  0.0000000000000000   F   F   F
  0.3333333333323125  0.1666666666687178  0.0000000000000000   F   F   F
  0.9999999999992468  0.3333333333312822  0.0000000000000000   F   F   F
  0.1666666666684407  0.2500000000000000  0.0000000000000000   F   F   F
  0.0833333333336412  0.4166666666687178  0.0000000000000000   F   F   F
  0.2500000000005826  0.3333333333312822  0.0000000000000000   F   F   F
  0.4166666666697694  0.2500000000000000  0.0000000000000000   F   F   F
  0.3333333333349700  0.4166666666687178  0.0000000000000000   F   F   F
  0.0000000000000000  0.0000000000000000  0.1071978058550016   F   F   F
  0.0833333333321420  0.0833333333312822  0.1071978058550016   F   F   F
  0.1666666666665293  0.1666666666687178  0.1071978058550016   F   F   F
  0.2500000000013287  0.0000000000000000  0.1071978058550016   F   F   F
  0.3333333333334707  0.0833333333312822  0.1071978058550016   F   F   F
  0.4166666666678580  0.1666666666687178  0.1071978058550016   F   F   F
  0.9999999999973355  0.2500000000000000  0.1071978058550016   F   F   F
  0.0833333333347994  0.3333333333312822  0.1071978058550016   F   F   F
  0.1666666666638719  0.4166666666687178  0.1071978058550016   F   F   F
  0.2499999999986713  0.2500000000000000  0.1071978058550016   F   F   F
  0.3333333333361281  0.3333333333312822  0.1071978058550016   F   F   F
  0.4166666666652006  0.4166666666687178  0.1071978058550016   F   F   F
 -0.0000549893670752  0.0833909588490869  0.2135027795364013   T   T   T
  0.1666448878195158 -0.0000616165234376  0.2135480092025161   T   T   T
  0.0833068608037902  0.1666323025358538  0.2135439870890919   T   T   T
  0.2499773645730775  0.0832559595067981  0.2134503840935731   T   T   T
  0.4165498540680166  0.0000343604664614  0.2134746623294399   T   T   T
  0.3334086354287242  0.1666245865369922  0.2135648697876751   T   T   T
  0.0000645064659722  0.3333656436885764  0.2134989029172659   T   T   T
  0.1666471695409398  0.2498983811575413  0.2135916853225056   T   T   T
  0.0834372063984122  0.4165806722379392  0.2134024631402055   T   T   T
  0.2500066817700951  0.3332790609679237  0.2137386061332851   T   T   T
  0.4167279128257337  0.2499522615470008  0.2135298569779284   T   T   T
  0.3332384027153097  0.4166409130838366  0.2137656679152345   T   T   T
 -0.0000028525377319 -0.0000974653442339  0.3163888616255658   T   T   T
  0.0832926268603580  0.0832465258009437  0.3164829767603610   T   T   T
  0.1664191572676458  0.1661786504377171  0.3163634378789834   T   T   T
  0.2499287013815686  0.0000456605444695  0.3166672565768334   T   T   T
  0.3335367328389836  0.0830143220601840  0.3163722757203059   T   T   T
  0.4173243729946566  0.1659443551826979  0.3162941275446094   T   T   T
  0.0000550496309293  0.2499174368318124  0.3165417092987929   T   T   T
  0.0825571450657277  0.3335426230925537  0.3161617090846876   T   T   T
  0.1660694986008282  0.4171977363464290  0.3165754735587596   T   T   T
  0.2499365268079594  0.2491317329348890  0.3169129680138635   T   T   T
  0.3336325435771820  0.3329937126812159  0.3168546796299619   T   T   T
  0.4170155609428006  0.4165508631446260  0.3163721768479872   T   T   T
  0.0000000000019114  0.5833333333312822  0.0000000000000000   F   F   F
  0.1666666666657761  0.5000000000000000  0.0000000000000000   F   F   F
  0.0833333333309767  0.6666666666687178  0.0000000000000000   F   F   F
  0.2500000000032401  0.5833333333312822  0.0000000000000000   F   F   F
  0.4166666666671119  0.5000000000000000  0.0000000000000000   F   F   F
  0.3333333333323054  0.6666666666687178  0.0000000000000000   F   F   F
  0.9999999999992468  0.8333333333312822  0.0000000000000000   F   F   F
  0.1666666666684407  0.7500000000000000  0.0000000000000000   F   F   F
  0.0833333333336412  0.9166666666687178  0.0000000000000000   F   F   F
  0.2500000000005826  0.8333333333312822  0.0000000000000000   F   F   F
  0.4166666666644474  0.7500000000000000  0.0000000000000000   F   F   F
  0.3333333333296480  0.9166666666687178  0.0000000000000000   F   F   F
  0.0000000000000000  0.5000000000000000  0.1071978058550016   F   F   F
  0.0833333333321420  0.5833333333312822  0.1071978058550016   F   F   F
  0.1666666666665293  0.6666666666687178  0.1071978058550016   F   F   F
  0.2500000000013287  0.5000000000000000  0.1071978058550016   F   F   F
  0.3333333333334707  0.5833333333312822  0.1071978058550016   F   F   F
  0.4166666666678580  0.6666666666687178  0.1071978058550016   F   F   F
  0.9999999999973355  0.7500000000000000  0.1071978058550016   F   F   F
  0.0833333333347994  0.8333333333312822  0.1071978058550016   F   F   F
  0.1666666666638719  0.9166666666687178  0.1071978058550016   F   F   F
  0.2499999999986713  0.7500000000000000  0.1071978058550016   F   F   F
  0.3333333333361281  0.8333333333312822  0.1071978058550016   F   F   F
  0.4166666666652006  0.9166666666687178  0.1071978058550016   F   F   F
  0.0000748150122516  0.5834022361466806  0.2134137692827198   T   T   T
  0.1666862713134590  0.4999351096088088  0.2135907798220002   T   T   T
  0.0833400814212011  0.6666705656238657  0.2136029977354502   T   T   T
  0.2500914167639131  0.5831792271940613  0.2136748123777821   T   T   T
  0.4166397910656815  0.4999192223499744  0.2136293338716531   T   T   T
  0.3334085785422406  0.6666010429956354  0.2135697326919381   T   T   T
  0.0000128079848987  0.8333543285763260  0.2135430915626978   T   T   T
  0.1666511316593322  0.7500003687092948  0.2135912720651685   T   T   T
  0.0834209344948686  0.9165917834214518  0.2135099281629728   T   T   T
  0.2499528406707868  0.8333125849839584  0.2135810331051369   T   T   T
  0.4167395342096233  0.7499686601919835  0.2135363953036434   T   T   T
  0.3332801163266784  0.9167021658090263  0.2135780041315785   T   T   T
 -0.0001666620388154  0.5000473564042882  0.3163389666115750   T   T   T
  0.0832001642801820  0.5834783461669012  0.3164989261775426   T   T   T
  0.1666238921554220  0.6666916131701230  0.3165522153395980   T   T   T
  0.2498413164642852  0.5003249608535820  0.3167411462954571   T   T   T
  0.3333265770047363  0.5833130973413959  0.3165832394753404   T   T   T
  0.4162357139200081  0.6671651976581979  0.3164694919348193   T   T   T
  0.0000718884304109  0.7500093909400782  0.3166894578472969   T   T   T
  0.0833017552016605  0.8333704761492301  0.3165036749476932   T   T   T
  0.1666047916004292  0.9166574820362741  0.3165220422316666   T   T   T
  0.2499325382122799  0.7500753547750117  0.3166470941158276   T   T   T
  0.3333379255263793  0.8333399218773371  0.3165541049950041   T   T   T
  0.4167034603249187  0.9166459421397212  0.3164796146775267   T   T   T
  0.5000000000045688  0.0833333333312822  0.0000000000000000   F   F   F
  0.6666666666684407  0.0000000000000000  0.0000000000000000   F   F   F
  0.5833333333336412  0.1666666666687178  0.0000000000000000   F   F   F
  0.7500000000005826  0.0833333333312822  0.0000000000000000   F   F   F
  0.9166666666697694  0.0000000000000000  0.0000000000000000   F   F   F
  0.8333333333349700  0.1666666666687178  0.0000000000000000   F   F   F
  0.5000000000019114  0.3333333333312822  0.0000000000000000   F   F   F
  0.6666666666657761  0.2500000000000000  0.0000000000000000   F   F   F
  0.5833333333309767  0.4166666666687178  0.0000000000000000   F   F   F
  0.7500000000032401  0.3333333333312822  0.0000000000000000   F   F   F
  0.9166666666671119  0.2500000000000000  0.0000000000000000   F   F   F
  0.8333333333323054  0.4166666666687178  0.0000000000000000   F   F   F
  0.5000000000026574  0.0000000000000000  0.1071978058550016   F   F   F
  0.5833333333347994  0.0833333333312822  0.1071978058550016   F   F   F
  0.6666666666691938  0.1666666666687178  0.1071978058550016   F   F   F
  0.7500000000039933  0.0000000000000000  0.1071978058550016   F   F   F
  0.8333333333361281  0.0833333333312822  0.1071978058550016   F   F   F
  0.9166666666652006  0.1666666666687178  0.1071978058550016   F   F   F
  0.5000000000000000  0.2500000000000000  0.1071978058550016   F   F   F
  0.5833333333374640  0.3333333333312822  0.1071978058550016   F   F   F
  0.6666666666665293  0.4166666666687178  0.1071978058550016   F   F   F
  0.7500000000013287  0.2500000000000000  0.1071978058550016   F   F   F
  0.8333333333334707  0.3333333333312822  0.1071978058550016   F   F   F
  0.9166666666678580  0.4166666666687178  0.1071978058550016   F   F   F
  0.4999378308676735  0.0834578481896687  0.2135601417892663   T   T   T
  0.6667382161484453 -0.0000681733481359  0.2134154713342817   T   T   T
  0.5833334260143641  0.1667111889948405  0.2135855956238059   T   T   T
  0.7500491747199759  0.0832674137487565  0.2135704830947557   T   T   T
  0.9166423804777665 -0.0000454123336001  0.2135035858180267   T   T   T
  0.8333855782913001  0.1665830207640279  0.2135491367742121   T   T   T
  0.5001061977618374  0.3333074694786524  0.2134061945853613   T   T   T
  0.6666799843544773  0.2500552605081278  0.2135942531482344   T   T   T
  0.5834562060461155  0.4166700353493282  0.2135701071646388   T   T   T
  0.7498955775526694  0.3334174706479313  0.2135990250273111   T   T   T
  0.9166354857574907  0.2499657208358995  0.2135577050276794   T   T   T
  0.8331888642050647  0.4167065452616504  0.2136658853597161   T   T   T
  0.4998319190303552  0.0001462258296589  0.3163352068792731   T   T   T
  0.5833550543158860  0.0833910271537674  0.3164931151348576   T   T   T
  0.6667079702713808  0.1666395491192697  0.3165291679067069   T   T   T
  0.7500686481249758 -0.0000283025153332  0.3166033173959436   T   T   T
  0.8334089323053003  0.0832712903631907  0.3164928166331137   T   T   T
  0.9166528465004485  0.1666047901981106  0.3164759871511557   T   T   T
  0.5006880800632281  0.2493834612737970  0.3164225897346094   T   T   T
  0.5834455648529498  0.3332444190170172  0.3165671206490787   T   T   T
  0.6667595418339752  0.4164108802377582  0.3167586543489872   T   T   T
  0.7500319036451084  0.2499194579458223  0.3166576331985657   T   T   T
  0.8334600224024755  0.3331040909726337  0.3164838889042433   T   T   T
  0.9168655450165244  0.4166467986946634  0.3163997205648494   T   T   T
  0.4999999999992468  0.5833333333312822  0.0000000000000000   F   F   F
  0.6666666666684407  0.5000000000000000  0.0000000000000000   F   F   F
  0.5833333333336412  0.6666666666687178  0.0000000000000000   F   F   F
  0.7500000000005826  0.5833333333312822  0.0000000000000000   F   F   F
  0.9166666666697694  0.5000000000000000  0.0000000000000000   F   F   F
  0.8333333333349700  0.6666666666687178  0.0000000000000000   F   F   F
  0.5000000000019114  0.8333333333312822  0.0000000000000000   F   F   F
  0.6666666666657761  0.7500000000000000  0.0000000000000000   F   F   F
  0.5833333333309767  0.9166666666687178  0.0000000000000000   F   F   F
  0.7500000000032401  0.8333333333312822  0.0000000000000000   F   F   F
  0.9166666666671119  0.7500000000000000  0.0000000000000000   F   F   F
  0.8333333333323054  0.9166666666687178  0.0000000000000000   F   F   F
  0.5000000000026574  0.5000000000000000  0.1071978058550016   F   F   F
  0.5833333333347994  0.5833333333312822  0.1071978058550016   F   F   F
  0.6666666666638719  0.6666666666687178  0.1071978058550016   F   F   F
  0.7499999999986713  0.5000000000000000  0.1071978058550016   F   F   F
  0.8333333333361281  0.5833333333312822  0.1071978058550016   F   F   F
  0.9166666666652006  0.6666666666687178  0.1071978058550016   F   F   F
  0.5000000000000000  0.7500000000000000  0.1071978058550016   F   F   F
  0.5833333333321420  0.8333333333312822  0.1071978058550016   F   F   F
  0.6666666666665293  0.9166666666687178  0.1071978058550016   F   F   F
  0.7500000000013287  0.7500000000000000  0.1071978058550016   F   F   F
  0.8333333333334707  0.8333333333312822  0.1071978058550016   F   F   F
  0.9166666666678580  0.9166666666687178  0.1071978058550016   F   F   F
  0.5000516195258675  0.5834905873530063  0.2136623301277443   T   T   T
  0.6665702665535898  0.5000420178550262  0.2136212727536686   T   T   T
  0.5833253526524197  0.6668506496137734  0.2137485463593221   T   T   T
  0.7500800854409303  0.5832703670360614  0.2135425108969088   T   T   T
  0.9164901642743308  0.5001327188249488  0.2135238578756881   T   T   T
  0.8333742936815803  0.6666149199903386  0.2133436483377247   T   T   T
  0.5000315593090292  0.8333253400830859  0.2134157566934410   T   T   T
  0.6667122505739251  0.7501072261547554  0.2135946261034919   T   T   T
  0.5834367515882426  0.9166185673266518  0.2134595249845724   T   T   T
  0.7500237886733711  0.8333248327768789  0.2135873403848108   T   T   T
  0.9167643272689884  0.7500128509728978  0.2135955856840416   T   T   T
  0.8333589585781387  0.9167469593150757  0.2135833009496168   T   T   T
  0.5000115260422668  0.5001474947921113  0.3162678097020086   T   T   T
  0.5831151645198870  0.5837663891225556  0.3167178173778427   T   T   T
  0.6667287813187606  0.6674191617116779  0.3167158930865018   T   T   T
  0.7504842880436835  0.4994736487476722  0.3168052172602542   T   T   T
  0.8340710112431874  0.5830883895043661  0.3162204584632321   T   T   T
  0.9166433997210939  0.6666768012030839  0.3164880807193657   T   T   T
  0.4993558944766852  0.7508908881108953  0.3164233581770525   T   T   T
  0.5832248250303091  0.8337120920522316  0.3163389228983813   T   T   T
  0.6666974779465737  0.9166407505530260  0.3164710589695981   T   T   T
  0.7504287972167172  0.7504750271991527  0.3162977764048857   T   T   T
  0.8334687847382852  0.8332849768620457  0.3165546327138017   T   T   T
  0.9167191273260659  0.9166593880565403  0.3165075135878361   T   T   T
  0.6855698671998368  0.6703737306609802  0.5231930382737440   T   T   T
  0.6771978005193193  0.6693634601093613  0.4351958114505248   T   T   T
  0.7763516397606877  0.6186945311698712  0.4729153014376214   T   T   T
  0.7398966231880981  0.5175395768378138  0.5279259316634090   T   T   T
  0.7404455264161064  0.5122449829719286  0.4399630311374238   T   T   T
  0.5901785309027544  0.6007606061717197  0.4342794593579826   T   T   T
  0.5829119217525636  0.6193952922401229  0.5208178611649743   T   T   T
  0.6376462455285614  0.4665751925937870  0.5417476221970905   T   T   T
  0.6407356760309336  0.4515032433077886  0.4541965818140570   T   T   T
  0.4892818958627042  0.5541942386478089  0.4472079857488782   T   T   T
  0.4851936380851231  0.5661838877138262  0.5348367502539878   T   T   T
  0.5319828061835687  0.4135720942425007  0.5467675933810080   T   T   T
  0.5336268400254656  0.4062765354059656  0.4585123294542196   T   T   T
  0.3818212384659722  0.5175952065097893  0.4573507917853881   T   T   T
  0.3813294448948992  0.5108599490968327  0.5456397201923483   T   T   T
  0.4310051343135434  0.3571020999285293  0.5329686784924420   T   T   T
  0.4262110288026072  0.3702426380337415  0.4455182974638555   T   T   T
  0.2740573796181047  0.4703694902606301  0.4532782609430447   T   T   T
  0.2781338328612039  0.4544129812902924  0.5407433402642626   T   T   T
  0.3378472302926556  0.3006588136433750  0.5183872821784878   T   T   T
  0.3274318890948342  0.3211987467171189  0.4321412428102246   T   T   T
  0.1768422792492125  0.4047830628977506  0.4407968167828947   T   T   T
  0.1800898815731265  0.3972570790592651  0.5287232237958485   T   T   T
  0.2476916795068173  0.2465373773783696  0.4343202534740583   T   T   T
  0.1484214322990752  0.2929079123072510  0.4722463270629065   T   T   T
  0.2397902555128548  0.2440890184462730  0.5221949959831129   T   T   T
  0.7129102811180896  0.6312634638051919  0.4788377221905395   T   T   T
  0.7073922194620738  0.5533432939984421  0.4831313366093025   T   T   T
  0.6189470494248648  0.5714459795371978  0.4833502766335142   T   T   T
  0.6081183742663465  0.4973157632889359  0.4943541027662792   T   T   T
  0.5177519423167909  0.5211649609460242  0.4945773542581901   T   T   T
  0.5028597621280325  0.4488784368051709  0.5008494000747976   T   T   T
  0.4116322122093854  0.4753308504205860  0.5000879130272038   T   T   T
  0.3975792265112678  0.4025827434975735  0.4931708672382817   T   T   T
  0.3077883866977579  0.4245247865859927  0.4931576790927774   T   T   T
  0.2994352163884328  0.3489756076383331  0.4819339818958409   T   T   T
  0.2122640997494972  0.3634494759179134  0.4830959800773936   T   T   T
  0.2107928900782870  0.2833707735223413  0.4781642859457466   T   T   T
 
  0.00000000E+00  0.00000000E+00  0.00000000E+00
  0.00000000E+00  0.00000000E+00  0.00000000E+00
  0.00000000E+00  0.00000000E+00  0.00000000E+00
  0.00000000E+00  0.00000000E+00  0.00000000E+00
  0.00000000E+00  0.00000000E+00  0.00000000E+00
  0.00000000E+00  0.00000000E+00  0.00000000E+00
  0.00000000E+00  0.00000000E+00  0.00000000E+00
  0.00000000E+00  0.00000000E+00  0.00000000E+00
  0.00000000E+00  0.00000000E+00  0.00000000E+00
  0.00000000E+00  0.00000000E+00  0.00000000E+00
  0.00000000E+00  0.00000000E+00  0.00000000E+00
  0.00000000E+00  0.00000000E+00  0.00000000E+00
  0.00000000E+00  0.00000000E+00  0.00000000E+00
  0.00000000E+00  0.00000000E+00  0.00000000E+00
  0.00000000E+00  0.00000000E+00  0.00000000E+00
  0.00000000E+00  0.00000000E+00  0.00000000E+00
  0.00000000E+00  0.00000000E+00  0.00000000E+00
  0.00000000E+00  0.00000000E+00  0.00000000E+00
  0.00000000E+00  0.00000000E+00  0.00000000E+00
  0.00000000E+00  0.00000000E+00  0.00000000E+00
  0.00000000E+00  0.00000000E+00  0.00000000E+00
  0.00000000E+00  0.00000000E+00  0.00000000E+00
  0.00000000E+00  0.00000000E+00  0.00000000E+00
  0.00000000E+00  0.00000000E+00  0.00000000E+00
  0.00000000E+00  0.00000000E+00  0.00000000E+00
  0.00000000E+00  0.00000000E+00  0.00000000E+00
  0.00000000E+00  0.00000000E+00  0.00000000E+00
  0.00000000E+00  0.00000000E+00  0.00000000E+00
  0.00000000E+00  0.00000000E+00  0.00000000E+00
  0.00000000E+00  0.00000000E+00  0.00000000E+00
  0.00000000E+00  0.00000000E+00  0.00000000E+00
  0.00000000E+00  0.00000000E+00  0.00000000E+00
  0.00000000E+00  0.00000000E+00  0.00000000E+00
  0.00000000E+00  0.00000000E+00  0.00000000E+00
  0.00000000E+00  0.00000000E+00  0.00000000E+00
  0.00000000E+00  0.00000000E+00  0.00000000E+00
  0.00000000E+00  0.00000000E+00  0.00000000E+00
  0.00000000E+00  0.00000000E+00  0.00000000E+00
  0.00000000E+00  0.00000000E+00  0.00000000E+00
  0.00000000E+00  0.00000000E+00  0.00000000E+00
  0.00000000E+00  0.00000000E+00  0.00000000E+00
  0.00000000E+00  0.00000000E+00  0.00000000E+00
  0.00000000E+00  0.00000000E+00  0.00000000E+00
  0.00000000E+00  0.00000000E+00  0.00000000E+00
  0.00000000E+00  0.00000000E+00  0.00000000E+00
  0.00000000E+00  0.00000000E+00  0.00000000E+00
  0.00000000E+00  0.00000000E+00  0.00000000E+00
  0.00000000E+00  0.00000000E+00  0.00000000E+00
  0.00000000E+00  0.00000000E+00  0.00000000E+00
  0.00000000E+00  0.00000000E+00  0.00000000E+00
  0.00000000E+00  0.00000000E+00  0.00000000E+00
  0.00000000E+00  0.00000000E+00  0.00000000E+00
  0.00000000E+00  0.00000000E+00  0.00000000E+00
  0.00000000E+00  0.00000000E+00  0.00000000E+00
  0.00000000E+00  0.00000000E+00  0.00000000E+00
  0.00000000E+00  0.00000000E+00  0.00000000E+00
  0.00000000E+00  0.00000000E+00  0.00000000E+00
  0.00000000E+00  0.00000000E+00  0.00000000E+00
  0.00000000E+00  0.00000000E+00  0.00000000E+00
  0.00000000E+00  0.00000000E+00  0.00000000E+00
  0.00000000E+00  0.00000000E+00  0.00000000E+00
  0.00000000E+00  0.00000000E+00  0.00000000E+00
  0.00000000E+00  0.00000000E+00  0.00000000E+00
  0.00000000E+00  0.00000000E+00  0.00000000E+00
  0.00000000E+00  0.00000000E+00  0.00000000E+00
  0.00000000E+00  0.00000000E+00  0.00000000E+00
  0.00000000E+00  0.00000000E+00  0.00000000E+00
  0.00000000E+00  0.00000000E+00  0.00000000E+00
  0.00000000E+00  0.00000000E+00  0.00000000E+00
  0.00000000E+00  0.00000000E+00  0.00000000E+00
  0.00000000E+00  0.00000000E+00  0.00000000E+00
  0.00000000E+00  0.00000000E+00  0.00000000E+00
  0.00000000E+00  0.00000000E+00  0.00000000E+00
  0.00000000E+00  0.00000000E+00  0.00000000E+00
  0.00000000E+00  0.00000000E+00  0.00000000E+00
  0.00000000E+00  0.00000000E+00  0.00000000E+00
  0.00000000E+00  0.00000000E+00  0.00000000E+00
  0.00000000E+00  0.00000000E+00  0.00000000E+00
  0.00000000E+00  0.00000000E+00  0.00000000E+00
  0.00000000E+00  0.00000000E+00  0.00000000E+00
  0.00000000E+00  0.00000000E+00  0.00000000E+00
  0.00000000E+00  0.00000000E+00  0.00000000E+00
  0.00000000E+00  0.00000000E+00  0.00000000E+00
  0.00000000E+00  0.00000000E+00  0.00000000E+00
  0.00000000E+00  0.00000000E+00  0.00000000E+00
  0.00000000E+00  0.00000000E+00  0.00000000E+00
  0.00000000E+00  0.00000000E+00  0.00000000E+00
  0.00000000E+00  0.00000000E+00  0.00000000E+00
  0.00000000E+00  0.00000000E+00  0.00000000E+00
  0.00000000E+00  0.00000000E+00  0.00000000E+00
  0.00000000E+00  0.00000000E+00  0.00000000E+00
  0.00000000E+00  0.00000000E+00  0.00000000E+00
  0.00000000E+00  0.00000000E+00  0.00000000E+00
  0.00000000E+00  0.00000000E+00  0.00000000E+00
  0.00000000E+00  0.00000000E+00  0.00000000E+00
  0.00000000E+00  0.00000000E+00  0.00000000E+00
  0.00000000E+00  0.00000000E+00  0.00000000E+00
  0.00000000E+00  0.00000000E+00  0.00000000E+00
  0.00000000E+00  0.00000000E+00  0.00000000E+00
  0.00000000E+00  0.00000000E+00  0.00000000E+00
  0.00000000E+00  0.00000000E+00  0.00000000E+00
  0.00000000E+00  0.00000000E+00  0.00000000E+00
  0.00000000E+00  0.00000000E+00  0.00000000E+00
  0.00000000E+00  0.00000000E+00  0.00000000E+00
  0.00000000E+00  0.00000000E+00  0.00000000E+00
  0.00000000E+00  0.00000000E+00  0.00000000E+00
  0.00000000E+00  0.00000000E+00  0.00000000E+00
  0.00000000E+00  0.00000000E+00  0.00000000E+00
  0.00000000E+00  0.00000000E+00  0.00000000E+00
  0.00000000E+00  0.00000000E+00  0.00000000E+00
  0.00000000E+00  0.00000000E+00  0.00000000E+00
  0.00000000E+00  0.00000000E+00  0.00000000E+00
  0.00000000E+00  0.00000000E+00  0.00000000E+00
  0.00000000E+00  0.00000000E+00  0.00000000E+00
  0.00000000E+00  0.00000000E+00  0.00000000E+00
  0.00000000E+00  0.00000000E+00  0.00000000E+00
  0.00000000E+00  0.00000000E+00  0.00000000E+00
  0.00000000E+00  0.00000000E+00  0.00000000E+00
  0.00000000E+00  0.00000000E+00  0.00000000E+00
  0.00000000E+00  0.00000000E+00  0.00000000E+00
  0.00000000E+00  0.00000000E+00  0.00000000E+00
  0.00000000E+00  0.00000000E+00  0.00000000E+00
  0.00000000E+00  0.00000000E+00  0.00000000E+00
  0.00000000E+00  0.00000000E+00  0.00000000E+00
  0.00000000E+00  0.00000000E+00  0.00000000E+00
  0.00000000E+00  0.00000000E+00  0.00000000E+00
  0.00000000E+00  0.00000000E+00  0.00000000E+00
  0.00000000E+00  0.00000000E+00  0.00000000E+00
  0.00000000E+00  0.00000000E+00  0.00000000E+00
  0.00000000E+00  0.00000000E+00  0.00000000E+00
  0.00000000E+00  0.00000000E+00  0.00000000E+00
  0.00000000E+00  0.00000000E+00  0.00000000E+00
  0.00000000E+00  0.00000000E+00  0.00000000E+00
  0.00000000E+00  0.00000000E+00  0.00000000E+00
  0.00000000E+00  0.00000000E+00  0.00000000E+00
  0.00000000E+00  0.00000000E+00  0.00000000E+00
  0.00000000E+00  0.00000000E+00  0.00000000E+00
  0.00000000E+00  0.00000000E+00  0.00000000E+00
  0.00000000E+00  0.00000000E+00  0.00000000E+00
  0.00000000E+00  0.00000000E+00  0.00000000E+00
  0.00000000E+00  0.00000000E+00  0.00000000E+00
  0.00000000E+00  0.00000000E+00  0.00000000E+00
  0.00000000E+00  0.00000000E+00  0.00000000E+00
  0.00000000E+00  0.00000000E+00  0.00000000E+00
  0.00000000E+00  0.00000000E+00  0.00000000E+00
  0.00000000E+00  0.00000000E+00  0.00000000E+00
  0.00000000E+00  0.00000000E+00  0.00000000E+00
  0.00000000E+00  0.00000000E+00  0.00000000E+00
  0.00000000E+00  0.00000000E+00  0.00000000E+00
  0.00000000E+00  0.00000000E+00  0.00000000E+00
  0.00000000E+00  0.00000000E+00  0.00000000E+00
  0.00000000E+00  0.00000000E+00  0.00000000E+00
  0.00000000E+00  0.00000000E+00  0.00000000E+00
  0.00000000E+00  0.00000000E+00  0.00000000E+00
  0.00000000E+00  0.00000000E+00  0.00000000E+00
  0.00000000E+00  0.00000000E+00  0.00000000E+00
  0.00000000E+00  0.00000000E+00  0.00000000E+00
  0.00000000E+00  0.00000000E+00  0.00000000E+00
  0.00000000E+00  0.00000000E+00  0.00000000E+00
  0.00000000E+00  0.00000000E+00  0.00000000E+00
  0.00000000E+00  0.00000000E+00  0.00000000E+00
  0.00000000E+00  0.00000000E+00  0.00000000E+00
  0.00000000E+00  0.00000000E+00  0.00000000E+00
  0.00000000E+00  0.00000000E+00  0.00000000E+00
  0.00000000E+00  0.00000000E+00  0.00000000E+00
  0.00000000E+00  0.00000000E+00  0.00000000E+00
  0.00000000E+00  0.00000000E+00  0.00000000E+00
  0.00000000E+00  0.00000000E+00  0.00000000E+00
  0.00000000E+00  0.00000000E+00  0.00000000E+00
  0.00000000E+00  0.00000000E+00  0.00000000E+00
  0.00000000E+00  0.00000000E+00  0.00000000E+00
  0.00000000E+00  0.00000000E+00  0.00000000E+00
  0.00000000E+00  0.00000000E+00  0.00000000E+00
  0.00000000E+00  0.00000000E+00  0.00000000E+00
  0.00000000E+00  0.00000000E+00  0.00000000E+00
  0.00000000E+00  0.00000000E+00  0.00000000E+00
  0.00000000E+00  0.00000000E+00  0.00000000E+00
  0.00000000E+00  0.00000000E+00  0.00000000E+00
  0.00000000E+00  0.00000000E+00  0.00000000E+00
  0.00000000E+00  0.00000000E+00  0.00000000E+00
  0.00000000E+00  0.00000000E+00  0.00000000E+00
  0.00000000E+00  0.00000000E+00  0.00000000E+00
  0.00000000E+00  0.00000000E+00  0.00000000E+00
  0.00000000E+00  0.00000000E+00  0.00000000E+00
  0.00000000E+00  0.00000000E+00  0.00000000E+00
  0.00000000E+00  0.00000000E+00  0.00000000E+00
  0.00000000E+00  0.00000000E+00  0.00000000E+00
  0.00000000E+00  0.00000000E+00  0.00000000E+00
  0.00000000E+00  0.00000000E+00  0.00000000E+00
  0.00000000E+00  0.00000000E+00  0.00000000E+00
  0.00000000E+00  0.00000000E+00  0.00000000E+00
  0.00000000E+00  0.00000000E+00  0.00000000E+00
  0.00000000E+00  0.00000000E+00  0.00000000E+00
  0.00000000E+00  0.00000000E+00  0.00000000E+00
  0.00000000E+00  0.00000000E+00  0.00000000E+00
  0.00000000E+00  0.00000000E+00  0.00000000E+00
  0.00000000E+00  0.00000000E+00  0.00000000E+00
  0.00000000E+00  0.00000000E+00  0.00000000E+00
  0.00000000E+00  0.00000000E+00  0.00000000E+00
  0.00000000E+00  0.00000000E+00  0.00000000E+00
  0.00000000E+00  0.00000000E+00  0.00000000E+00
  0.00000000E+00  0.00000000E+00  0.00000000E+00
  0.00000000E+00  0.00000000E+00  0.00000000E+00
  0.00000000E+00  0.00000000E+00  0.00000000E+00
  0.00000000E+00  0.00000000E+00  0.00000000E+00
  0.00000000E+00  0.00000000E+00  0.00000000E+00
  0.00000000E+00  0.00000000E+00  0.00000000E+00
  0.00000000E+00  0.00000000E+00  0.00000000E+00
  0.00000000E+00  0.00000000E+00  0.00000000E+00
  0.00000000E+00  0.00000000E+00  0.00000000E+00
  0.00000000E+00  0.00000000E+00  0.00000000E+00
  0.00000000E+00  0.00000000E+00  0.00000000E+00
  0.00000000E+00  0.00000000E+00  0.00000000E+00
  0.00000000E+00  0.00000000E+00  0.00000000E+00
  0.00000000E+00  0.00000000E+00  0.00000000E+00
  0.00000000E+00  0.00000000E+00  0.00000000E+00
  0.00000000E+00  0.00000000E+00  0.00000000E+00
  0.00000000E+00  0.00000000E+00  0.00000000E+00
  0.00000000E+00  0.00000000E+00  0.00000000E+00
  0.00000000E+00  0.00000000E+00  0.00000000E+00
  0.00000000E+00  0.00000000E+00  0.00000000E+00
  0.00000000E+00  0.00000000E+00  0.00000000E+00
  0.00000000E+00  0.00000000E+00  0.00000000E+00
  0.00000000E+00  0.00000000E+00  0.00000000E+00
  0.00000000E+00  0.00000000E+00  0.00000000E+00
  0.00000000E+00  0.00000000E+00  0.00000000E+00
  0.00000000E+00  0.00000000E+00  0.00000000E+00
  0.00000000E+00  0.00000000E+00  0.00000000E+00
  0.00000000E+00  0.00000000E+00  0.00000000E+00
  0.00000000E+00  0.00000000E+00  0.00000000E+00
